 # Version information for this restart file 
 # current date 2024-11-24 09:39:27.763
 # current working dir /home/jh9412/HiJihye/comp-lab-class-2024/week12/Runs/w2
 # Program compiled at                              Sat Dec 12 18:27:15 EST 2020
 # Program compiled on                                         cs001.nyu.cluster
 # Program compiled for                                                nyu-intel
 # Source code revision number                                       git:8c64c6e
 &GLOBAL
   PRINT_LEVEL  LOW
   PROJECT_NAME water_aimd_1ns_every0.5fs
   RUN_TYPE  MD
   WALLTIME 21600
 &END GLOBAL
 &MOTION
   &MD
     ENSEMBLE  NVT
     STEPS  2000
     TIMESTEP     4.9999999999999994E-01
     STEP_START_VAL  98
     TIME_START_VAL     4.9000000000000036E+01
     ECONS_START_VAL    -1.1023558357480233E+03
     TEMPERATURE     3.0000000000000000E+02
     &THERMOSTAT
       TYPE  GLE
       REGION  MASSIVE
       &GLE
         NDIM  5
         A_SCALE     1.0000000000000000E+00
         A_LIST     1.8595758612559999E+02    2.7263853498399998E-01    1.1526100454610001E+01   -3.6414578262600003E+01 \
             2.3173375816020001E+02
         A_LIST    -2.7809524712060002E-01    8.5951591808710006E-05    7.2189048017650004E-01   -1.9844539343859999E-01 \
             4.2409257583420001E-01
         A_LIST    -1.4825808131210000E+01   -7.2189048017650004E-01    1.3590902121280000E+00    5.1498896280349999E+00 \
            -9.9949268450990001E+00
         A_LIST    -1.0372189126880000E+01    1.9844539343859999E-01   -5.1498896280349999E+00    2.6661910891169999E+01 \
             1.1507715495310000E+01
         A_LIST     2.1801346360420001E+02   -4.2409257583420001E-01    9.9949268450990001E+00   -1.1507715495310000E+01 \
             3.0958394565589998E+02
         &THERMOSTAT_ENERGY
              -1.5646745649226402E-03
               2.6736935366864559E-05
              -6.3707338559149096E-04
              -1.8876369539033600E-03
              -2.1577377308983855E-05
               3.4801455722331493E-03
              -2.3187870267586037E-03
               2.4820842192118269E-03
               2.3679250582511776E-03
              -1.1631489117025615E-04
               2.6627007335684868E-03
               6.9166937194187737E-04
               2.6819974658276232E-03
               5.6283652817205822E-04
               2.1230672072564843E-03
              -1.4298685043601291E-03
               8.4124028524865037E-04
               1.2568782010665062E-03
               2.0611008181552486E-04
              -1.5132393488453623E-03
              -1.0885228858895175E-03
               2.1355222135677997E-03
              -1.6013540590564877E-04
               2.1613254732867995E-04
              -2.4995141344590424E-05
              -1.7727195478401806E-03
               2.8815097657181113E-03
               2.3799200249231768E-04
               5.6871336792600486E-04
               5.4823759033335341E-04
               9.8146271677564817E-04
              -8.9000017775713296E-04
               5.5177144161503675E-05
               1.6023160045830701E-03
              -4.4473979050755393E-03
               3.7594753529343727E-03
              -7.6165650328166253E-04
              -9.1868029443562167E-05
               1.8650755637651063E-04
               8.1247137690248041E-05
               1.2096862723038246E-03
              -3.8666653747088705E-04
              -4.7481580070374063E-04
               2.0141528196592406E-03
              -2.6971813350784028E-03
               1.8801963339184083E-03
              -1.1499232310287180E-03
               1.6204529628564390E-04
              -6.1628000698440175E-04
               1.2583697694886716E-03
               2.1282429031735855E-06
              -3.7272763898163811E-04
              -3.8516042872575916E-04
              -7.0306734789957713E-04
              -3.1991027466101623E-03
              -1.2174603186408293E-03
              -1.0814026345689700E-03
               1.1550282227168337E-03
               1.4810348721530189E-03
              -4.3188249815350899E-03
               1.9154778359809174E-03
               2.8869022455815557E-03
              -1.5141058050314278E-03
               9.7780635011219218E-04
              -8.7094163788948545E-04
               9.2415444754026174E-04
              -3.1516505126895989E-03
              -2.2289170308975169E-04
              -1.8338270423791099E-03
               1.9133759791714280E-04
               5.0043467764120076E-04
               1.8762821302797956E-03
              -1.2888038969561951E-03
               9.7860500361240856E-04
               3.2547129002989206E-04
              -3.5682615920034776E-03
               1.0511662164235604E-03
               2.8049189428452606E-03
               4.6014659544949812E-03
              -1.5277086058632656E-03
              -3.0227462393987822E-04
              -3.0188464290487624E-04
              -1.0122662758320442E-04
              -4.4004973273618756E-04
               3.1886111626772983E-03
              -1.3457814215923779E-03
               1.7424256438070278E-04
               6.7371370432100868E-04
              -8.7069044888645765E-04
              -2.7979210485771952E-04
               2.6447978572972405E-03
              -2.1646183001211268E-03
               2.2583872782568817E-03
              -1.1860619275194809E-03
              -1.6279762668100302E-03
              -4.2859050893624129E-03
               2.7937316038550758E-04
              -3.1121249162692150E-03
               4.2176755819151100E-04
               6.2770949674487619E-04
               2.0623509862353179E-05
              -7.8572318705933590E-04
               1.4920046784058750E-04
               1.4584468264351555E-03
               3.3530988115623961E-04
               2.8769624827263583E-03
               1.6312588882184839E-04
              -3.6368174571690953E-04
               2.8474850050807816E-03
               6.5123322738943592E-04
               1.1803216581499727E-03
              -1.6027457298024963E-03
               1.1791230156866965E-03
               1.3885081965454129E-03
               1.1223187474581004E-03
               2.6374383376917858E-03
              -8.8019477623014781E-03
               1.3106007701616908E-03
               4.1495438481059261E-04
              -3.3445222435933997E-04
               1.1577046666833078E-04
               1.3079912324414930E-03
               3.1603616327604833E-03
               2.7267813857057943E-04
              -3.3011861057105074E-03
              -1.6192167898143523E-03
               9.2771290836533957E-04
               2.7766615936056253E-03
              -1.0546026144909047E-03
               2.2113768263538067E-03
              -1.3021753886343619E-03
              -1.7467070560941425E-03
               2.3991403510545932E-04
              -2.4780554845902207E-03
              -6.8115334534580218E-04
               1.0306365880148596E-03
              -1.2115292589937772E-03
              -4.0118567153587994E-04
               6.7361448929793789E-04
               1.1075584862440591E-03
               2.9919629398888221E-03
               1.4498334453175851E-03
              -3.6294324987037055E-04
               5.4632716890747404E-04
              -9.9158826045721358E-04
              -8.4398313356755407E-05
               1.0174651266088069E-03
              -5.3092663050064446E-04
              -2.0120986974476989E-03
               1.8030209398369886E-03
              -8.0580830704810361E-04
              -1.3063751289298610E-03
              -1.7162765132403598E-04
               3.7971790163718680E-04
              -4.2427689032332035E-04
               5.5044360014071508E-04
              -4.0656316496464576E-04
               9.5183195130751780E-05
              -1.9087958123136859E-04
               1.5508126272414319E-03
              -8.9041322303161309E-04
              -3.3764566138695710E-03
              -5.9832691849457092E-04
               3.0146506580030320E-04
               2.6395922413509666E-03
               1.5774525141657645E-03
               1.2392249438412455E-03
               6.4857127781725176E-04
              -5.0619810916400325E-03
              -2.5172466047348107E-04
              -6.4355510538629309E-04
               4.5416578145254192E-05
               9.6055123975912827E-04
               1.3663758688078030E-04
              -1.1162807744101678E-03
               3.0155675010881959E-05
               4.6319371801965017E-04
               8.1819440192381016E-04
               2.2636047012862331E-05
               1.6145815719071747E-03
              -1.4913026660503008E-04
               2.3504150983111305E-05
               1.5570495950497950E-03
               1.2514057050853071E-03
              -4.3550567931300053E-04
               9.9106377252871638E-05
              -1.9440585672256057E-03
              -1.3653252860288782E-03
              -3.5096554400831921E-03
              -1.0581791136468986E-03
               1.3520831317936318E-03
              -6.0176743556875068E-04
               1.1974909936525435E-03
              -1.2345042956930356E-03
               2.4668257677325109E-04
              -5.5686395423583121E-03
              -1.5071695184886634E-04
              -1.2000157852861744E-03
               7.0242440310529252E-04
              -1.8571188905708936E-03
               1.3648183121001611E-04
               1.1868185746764859E-03
               2.3258615717738912E-04
               6.1669248819528775E-04
              -5.2893612933411528E-03
               2.9718089045689921E-04
              -6.1340571404037113E-04
               2.0339765461865190E-03
               2.7919792157068057E-04
               3.6633063998930456E-03
              -1.1237695405917068E-03
              -1.5661879360679152E-03
               1.3690836185636934E-03
              -2.5623654158991186E-03
               1.3692929030237530E-03
               1.9347380193055702E-03
              -7.0544284957643256E-04
               1.1697815706350270E-03
               8.5779598299204883E-04
              -2.8146195789634123E-04
               2.2116293275288826E-03
               9.8312514742506765E-04
              -2.7344283566576458E-03
              -4.7477065770147836E-04
              -2.2037349528821392E-05
              -4.9601718533679579E-05
               1.1218646964408496E-03
              -9.8484494157023976E-05
               1.1464815580378978E-03
               3.9121254342149130E-03
              -2.5501255696782350E-03
               2.7362482004171383E-03
               7.7118560260338535E-04
               1.8788448615380193E-04
               3.0665056656131034E-03
               1.2796376408820461E-03
              -1.7812446112895628E-03
               1.7320562182053501E-03
              -1.8676822253825087E-04
               4.4827795871635442E-04
               2.3271137567235773E-04
              -1.0589728180280186E-03
               1.8975774805763323E-03
               1.6628430685627349E-03
               1.4351097172155328E-03
              -7.9498751589908304E-04
              -1.1591836477528731E-03
               8.9306016277413964E-04
               6.7436789906176302E-04
              -4.4303731886924866E-03
              -1.3879115089100451E-03
               1.4794732587563642E-03
              -4.9439350059460568E-04
               5.5188748828450141E-04
              -2.3868792154164448E-03
              -6.9245047534798488E-04
              -1.3583502533970017E-03
              -2.7966725029300609E-04
               1.8207730846158067E-03
              -6.8842333608898874E-04
               1.3038746578850503E-03
               1.1868432394994985E-03
              -5.4964691566093769E-04
               1.3485178598720020E-03
               1.9942483055205950E-03
              -4.3545562127217272E-04
               1.4269137432978605E-04
               1.4905977320383221E-03
              -9.7536888165200954E-04
              -2.2722303621377899E-03
              -3.1864280268408571E-04
              -1.4040509084411264E-04
               1.2970176572579398E-03
               1.2414415412349215E-04
              -2.1683349696515944E-04
               1.2428333899456576E-03
              -4.4980677151473941E-03
              -3.3967394349218794E-04
              -6.6016560783553916E-04
               4.2806064314359390E-04
               1.8838524707914296E-04
              -9.3993529810447614E-04
               2.0310094926530319E-03
               2.1801008063683132E-03
              -1.6574851622015545E-03
              -4.3309149137052259E-04
              -2.5584021192224288E-03
              -7.8282539146003367E-04
               4.3060191762292564E-04
               1.3038152921128428E-04
              -5.9750491877868270E-04
               2.8111080890456052E-03
              -9.9333361661644096E-04
              -6.4737412277239169E-04
              -3.4933519656131940E-05
               8.1678763029209437E-04
               1.0186119046597685E-03
              -3.1290346899945224E-04
              -1.7592313243066854E-03
               3.9350030778421204E-04
               8.3055489586584782E-04
               6.6772303768662558E-04
              -7.0556388610912236E-04
              -4.5265379376298450E-04
               2.8831039767331437E-03
              -2.1940369052804212E-04
               8.7182973668292101E-04
               6.3741564588064477E-04
              -1.5873238485701610E-03
               1.8777129132057713E-04
              -2.0511618346791120E-03
              -2.0784351435971498E-03
               1.8851873015702549E-03
               1.1172459344595436E-03
              -2.6978253608696502E-03
               3.5654812736907052E-05
               1.3592531790690497E-04
               4.0871812726213696E-03
               5.4428156356246338E-04
              -4.5251968423296257E-05
               1.6466713146011756E-03
               1.4007217620114834E-03
              -3.8366333193255000E-03
               3.0571832732499663E-03
               9.3428599912231112E-04
               1.2930032531587351E-03
               1.4445033917295002E-03
               1.4829902119425865E-03
              -4.6938095327577834E-04
              -1.9301944003912643E-03
              -1.9543770944501237E-03
               6.6331795222516565E-04
              -1.0015989966632442E-03
               8.4700683512490345E-04
               8.9617461080248977E-04
              -8.0882699344915878E-04
               3.8289512922161416E-03
               3.8384669832607146E-03
              -1.6680040497319536E-03
               1.8021917196632529E-03
               5.5766887838827703E-04
              -1.9633358814546351E-03
               1.9972657989066316E-03
               6.6291094382385821E-04
              -1.1659666132492704E-03
               9.3392679009844236E-04
               7.5307004005817802E-05
              -7.4678560664549732E-04
              -1.2272894891927515E-03
              -7.1060025737477571E-04
               2.6526785981435884E-05
              -6.5074409042044324E-04
              -1.9998161341550384E-03
               1.9621195037597183E-04
              -1.1228154108877618E-03
              -9.0752688030408145E-04
               4.0836545717101566E-03
               1.6627577663352240E-03
               4.5802920287995707E-04
               3.3493060756226911E-03
              -1.7851178369481527E-04
               2.2181433278852924E-05
              -1.4675169629399020E-03
              -1.9521799970495320E-03
               1.1395953484792840E-03
               5.2331618182143507E-05
               2.7976444821564243E-03
               4.1456310552075913E-04
               5.4035172410309043E-04
              -1.9129031348458941E-03
               2.7266127617448573E-04
              -1.3330971075439222E-03
               2.5799605198902958E-03
               4.1697928353123467E-04
              -1.2512540286693493E-03
              -3.3306798198060564E-03
               6.6828560038962226E-04
               6.2915967311737262E-04
               1.2839255111864875E-03
              -4.7612884805880729E-04
              -2.8707922257028163E-04
              -6.6378759771013886E-04
               2.7008248783523458E-03
               1.5965113501760901E-03
              -6.4874246516863701E-03
              -3.9518294921325482E-04
               2.2290395062771174E-04
              -4.0330697332045928E-03
              -6.6527987255651333E-04
               2.9983018868197381E-04
               3.4158310960883455E-04
              -1.8231779857991122E-04
               7.5767150636674369E-04
              -1.0408437537157836E-03
              -1.1912080283276274E-03
              -6.0794284010754721E-04
              -1.5452087443677330E-03
               3.7490385243531374E-04
               8.9972410985816615E-04
              -1.6068933793611762E-03
              -3.2024714664738909E-03
               3.3195363967981309E-03
              -2.4001694123328157E-04
               6.4624057155687449E-04
               1.3181951027860775E-03
              -4.2120409167234192E-04
              -1.7111890346348019E-03
               1.5377493986050178E-03
              -2.5630362909107067E-04
              -1.2738205076013927E-03
              -1.4888894965740904E-03
              -2.2969823326595481E-04
              -8.5173832621570690E-04
               2.0117435445244237E-03
              -1.8980339078909546E-03
              -4.1336554282827523E-04
               6.2114201497709995E-04
              -2.2484532754706971E-03
               1.3789947826872381E-03
               3.0720514191134784E-03
               9.4799151263575071E-04
              -3.4692549240974060E-03
               2.1239383178237813E-03
               2.6507250325546111E-04
              -9.4122016492087209E-04
              -3.0306076692079983E-03
               6.9501540920766276E-04
              -2.4848365503475360E-03
               1.2390828153320578E-03
               1.2176532899084319E-03
               1.8356389188712713E-03
              -2.7686458030172266E-03
               1.6386763729340384E-03
              -6.2992985902138776E-04
              -5.9108009321345867E-04
              -9.5185901034446183E-04
              -5.7978985719929054E-04
              -4.5620539272682383E-04
               6.5155546800406666E-04
               8.2578831670450218E-04
              -3.1360342666429744E-03
              -1.7852331183388749E-03
              -1.6579522476570185E-03
               2.7983588086526812E-03
               1.8432480624497327E-03
               2.6924032365994465E-03
               1.1277546190774717E-03
              -1.7637795741734924E-03
              -8.3762062499651317E-04
              -1.2823578791289929E-04
               1.9303916637948990E-06
              -3.4405574294670031E-03
              -2.7256030348715070E-04
               7.6581732978223767E-04
              -3.2584462510453901E-03
               1.0754769150220860E-03
               5.5139915243026466E-03
               3.8653919556379636E-04
              -1.3568762765646765E-03
               5.1092186644977511E-04
               3.3651204277721078E-03
              -1.0460285977114587E-03
               2.5558207382923226E-03
              -3.1100969716487481E-03
               2.3363240723496205E-03
               8.7393801234428162E-04
              -4.1139611089982004E-03
              -4.1531071024398332E-04
               1.6073017825319793E-03
               9.7214784172932700E-04
               3.7053925010744162E-05
              -2.3646853984536044E-03
               7.7850976444685026E-04
               6.9020100548077121E-04
              -8.5714015941847587E-05
               2.7615764974817120E-03
               1.1956336498007501E-03
              -2.6820102961696961E-04
               2.2215272534656903E-04
               9.7660201808672810E-04
               4.8517086893247238E-03
              -9.5748406374024971E-04
              -1.0058987315676780E-04
              -3.2984461449020778E-04
              -9.7044857069461966E-05
               4.1024371776623764E-04
              -1.3391584538360358E-04
              -1.0316415460996245E-03
              -2.4249387606171584E-03
              -9.5841880589192811E-05
              -3.9852790606494657E-05
              -2.9027148996681607E-04
              -7.5825769600722920E-04
              -7.0306283930901547E-04
               4.5455215394767596E-03
               9.3409668441866230E-04
              -8.6701528319075942E-04
              -4.4327721748645891E-04
              -2.7288317812895133E-03
              -3.8760801884050373E-03
               4.4080049458920098E-03
              -3.2431011763511298E-04
               1.0207613576386373E-03
              -5.1032466432665048E-04
               3.3553066299746857E-04
              -2.4133854494468509E-03
               1.0974455655750016E-03
               1.8040701931574614E-03
              -2.4706705695150163E-04
              -2.5301221247405495E-05
               2.9900041667553132E-04
               3.6186700530928921E-03
              -5.8398167377339636E-03
               2.2747978833260289E-03
               4.3415148666080941E-05
               1.9809577405115885E-03
               1.1031749863808194E-03
               8.4911872097773568E-04
               8.1070643197922237E-04
              -2.5756888063653994E-03
               7.9711806903552624E-05
              -2.4669980966050141E-03
               1.0056612752371824E-03
              -4.5802248561133173E-04
               6.8591854254019082E-04
               4.8494706120841985E-04
              -2.1643045855188037E-03
              -1.1195154639491067E-03
               2.9889718240543590E-03
               7.4382223651566772E-04
              -1.1876089962316178E-03
               2.4277460241433680E-05
              -7.3704760696869937E-04
              -3.4654625235393477E-04
               1.7414132950298279E-04
              -3.9596540431947828E-03
               4.6114549782144421E-04
              -7.9397083833079255E-04
              -6.1693880297763342E-04
               2.1412663570867915E-05
               4.9771189906861997E-04
               3.4159926665340264E-04
               9.9873615566230690E-04
               3.6036091935404645E-04
               2.7247877422719070E-04
              -4.8536054832376682E-04
               6.2536631037620957E-04
               1.5757764416595639E-04
               8.2662129967310495E-04
               1.1981329039596950E-03
              -1.9692510748602551E-03
              -1.6679121640247427E-03
               1.2357060230487591E-04
               5.2743595651913151E-04
               7.1268112441252840E-04
              -2.6600153171449110E-03
               2.0810654244898361E-03
              -2.5734431019874761E-04
               7.6239629034127896E-03
              -2.1606785995933499E-03
              -1.0073508732068069E-03
               4.6968548492267852E-04
              -3.7208500500246064E-03
               4.5439779525653194E-03
               3.2268443165092671E-03
               2.8842862259925066E-04
              -3.8812893284596310E-03
               2.2089751027371560E-04
               1.1171419938696531E-03
              -2.6385915966415871E-04
              -2.7509292682349282E-03
              -5.7705526876488810E-04
               1.6174008300870290E-03
               1.2816522899537822E-03
              -1.6922532037210712E-03
              -3.2931449013307674E-03
         &END THERMOSTAT_ENERGY
         &RNG_INIT
Wiener process for Thermostat # 1        1 F T T   1.3054062907343207E+00        3393478935.0         696107898.0        2771050625.0        3142347377.0        1654035673.0        1733165485.0             12345.0             12345.0             12345.0             12345.0             12345.0             12345.0             12345.0             12345.0             12345.0             12345.0             12345.0             12345.0
Wiener process for Thermostat # 2        1 F T T   4.1812295429132268E-01        3255226212.0        1899725623.0        2134507493.0        1186729666.0        1995040526.0        2989675762.0        3692455944.0        1366884236.0        2968912127.0         335948734.0        4161675175.0         475798818.0        3692455944.0        1366884236.0        2968912127.0         335948734.0        4161675175.0         475798818.0
Wiener process for Thermostat # 3        1 F T T   9.8454529128685131E-01         979621080.0        3176421389.0        4288067619.0        3164423360.0        3728322111.0        2003623558.0        1015873554.0        1310354410.0        2249465273.0         994084013.0        2912484720.0        3876682925.0        1015873554.0        1310354410.0        2249465273.0         994084013.0        2912484720.0        3876682925.0
Wiener process for Thermostat # 4        1 F T T  -4.0651519798592511E-01        2887870059.0        3365395193.0        2299514896.0        3848568780.0        2285065878.0         170177942.0        2338701263.0        1119171942.0        2570676563.0         317077452.0        3194180850.0         618832124.0        2338701263.0        1119171942.0        2570676563.0         317077452.0        3194180850.0         618832124.0
Wiener process for Thermostat # 5        1 F T T   6.5892639246983076E-01        3143406971.0        1892267791.0         294138392.0        1233526154.0        3271625653.0         364023644.0        1597262096.0        3906379055.0        3312112953.0        1016013135.0        4099474108.0         275305423.0        1597262096.0        3906379055.0        3312112953.0        1016013135.0        4099474108.0         275305423.0
Wiener process for Thermostat # 6        1 F T T  -1.3737437070671945E+00        3269667632.0        1286348332.0        3137131423.0        1621573496.0        3951612193.0        4089952599.0          97147054.0        3131372450.0         829345164.0        3691032523.0        3006063034.0        4259826321.0          97147054.0        3131372450.0         829345164.0        3691032523.0        3006063034.0        4259826321.0
Wiener process for Thermostat # 7        1 F T T   1.1505931422682516E+00        2834349392.0        2791556970.0        2930390381.0        3541791026.0        3405750195.0         445529670.0         796079799.0        2105258207.0         955365076.0        2923159030.0        4116632677.0        3067683584.0         796079799.0        2105258207.0         955365076.0        2923159030.0        4116632677.0        3067683584.0
Wiener process for Thermostat # 8        1 F T T   8.7335463194970409E-01        3065006528.0         951254588.0        3069888291.0         553760255.0        1713432540.0         231734123.0        3281794178.0        2616230133.0        1457051261.0        2762791137.0        2480527362.0        2282316169.0        3281794178.0        2616230133.0        1457051261.0        2762791137.0        2480527362.0        2282316169.0
Wiener process for Thermostat # 9        1 F T T  -1.5997918248615588E+00        2925688774.0        3436075781.0        1901344804.0          16148695.0        2419623601.0        3603673432.0        3777646647.0        1837464056.0        4204654757.0         664239048.0        4190510072.0        2959195122.0        3777646647.0        1837464056.0        4204654757.0         664239048.0        4190510072.0        2959195122.0
Wiener process for Thermostat # 10       1 F T T  -5.6697445413774694E-01        1516730983.0        3243874646.0        3004818856.0        1104915122.0        2821017722.0        3630417053.0        4215590817.0        3862461878.0        1087200967.0        1544910132.0         936383720.0        1611370123.0        4215590817.0        3862461878.0        1087200967.0        1544910132.0         936383720.0        1611370123.0
Wiener process for Thermostat # 11       1 F T T  -4.3133567637894255E-01        3581965806.0         915490482.0        1871267946.0         250637326.0        3196571114.0        1701977024.0        1683636369.0         362165168.0         814316280.0         869382050.0         980203903.0        2062101717.0        1683636369.0         362165168.0         814316280.0         869382050.0         980203903.0        2062101717.0
Wiener process for Thermostat # 12       1 F T T  -5.7080805661772149E-01         633524595.0        2537845073.0         693464655.0         143821065.0         911774572.0        3646689966.0         272317999.0         166758548.0         310112982.0         201045826.0        1680231254.0         118290799.0         272317999.0         166758548.0         310112982.0         201045826.0        1680231254.0         118290799.0
Wiener process for Thermostat # 13       1 F T T  -1.2504521015576204E+00        2605961103.0        2044105131.0        2020001843.0        3793947394.0         456774746.0        1815568223.0        2245755202.0        1652682525.0        2865544364.0         721509566.0         209733568.0         592362218.0        2245755202.0        1652682525.0        2865544364.0         721509566.0         209733568.0         592362218.0
Wiener process for Thermostat # 14       1 F T T   6.3454837433310940E-01          48719607.0        1469264378.0        3570695640.0        4157860014.0        2061120881.0        3361329833.0        3003961408.0        3529909391.0          14538032.0        3603919910.0         566682685.0        1235016484.0        3003961408.0        3529909391.0          14538032.0        3603919910.0         566682685.0        1235016484.0