 # Version information for this restart file 
 # current date 2024-11-24 09:41:29.666
 # current working dir /home/jh9412/HiJihye/comp-lab-class-2024/week12/Runs/w2
 # Program compiled at                              Sat Dec 12 18:27:15 EST 2020
 # Program compiled on                                         cs001.nyu.cluster
 # Program compiled for                                                nyu-intel
 # Source code revision number                                       git:8c64c6e
 &GLOBAL
   PRINT_LEVEL  LOW
   PROJECT_NAME water_aimd_1ns_every0.5fs
   RUN_TYPE  MD
   WALLTIME 21600
 &END GLOBAL
 &MOTION
   &MD
     ENSEMBLE  NVT
     STEPS  2000
     TIMESTEP     4.9999999999999994E-01
     STEP_START_VAL  99
     TIME_START_VAL     4.9500000000000036E+01
     ECONS_START_VAL    -1.1023558357480233E+03
     TEMPERATURE     3.0000000000000000E+02
     &THERMOSTAT
       TYPE  GLE
       REGION  MASSIVE
       &GLE
         NDIM  5
         A_SCALE     1.0000000000000000E+00
         A_LIST     1.8595758612559999E+02    2.7263853498399998E-01    1.1526100454610001E+01   -3.6414578262600003E+01 \
             2.3173375816020001E+02
         A_LIST    -2.7809524712060002E-01    8.5951591808710006E-05    7.2189048017650004E-01   -1.9844539343859999E-01 \
             4.2409257583420001E-01
         A_LIST    -1.4825808131210000E+01   -7.2189048017650004E-01    1.3590902121280000E+00    5.1498896280349999E+00 \
            -9.9949268450990001E+00
         A_LIST    -1.0372189126880000E+01    1.9844539343859999E-01   -5.1498896280349999E+00    2.6661910891169999E+01 \
             1.1507715495310000E+01
         A_LIST     2.1801346360420001E+02   -4.2409257583420001E-01    9.9949268450990001E+00   -1.1507715495310000E+01 \
             3.0958394565589998E+02
         &THERMOSTAT_ENERGY
              -1.7202335359406142E-03
               4.4192607765230585E-05
              -2.2092326279999695E-04
              -1.9880884803701615E-03
               8.2097921405228832E-05
               3.7303381856288583E-03
              -2.5444886895906386E-03
               2.7202910711494710E-03
               2.1908548859907381E-03
               1.6800453705479639E-04
               2.9722370230979051E-03
               6.9188345386483039E-04
               3.0650029574716621E-03
               6.6609453447124818E-04
               2.1450466712682028E-03
              -1.5288662276914731E-03
               8.7957299548682927E-04
               1.1645038297745402E-03
               2.4253183664927938E-04
              -1.5837254213413089E-03
              -1.1290634616381323E-03
               2.2786701481691471E-03
              -8.2817120928178702E-05
               6.7355472143749832E-05
              -2.7221354203850142E-04
              -1.8534819861922537E-03
               2.3555092666147524E-03
               2.3247055731644400E-05
               5.4877622978153728E-04
               5.0657279946871177E-04
               1.8954382929507710E-03
              -9.1829522316466000E-04
               2.2145953211836762E-04
               1.3906873108791556E-03
              -4.4050063208922663E-03
               3.4886902778867661E-03
              -2.0450922022201114E-03
              -2.4354279782560364E-04
               2.2159313529652281E-04
               1.8414044897424459E-04
               1.0676854807553258E-03
              -2.8205241054164888E-04
              -7.0539933567737891E-04
               2.4193545986808964E-03
              -2.7110007514511997E-03
               1.8987758628989460E-03
              -1.0274053216976599E-03
              -7.7318497413406546E-05
              -7.3123971235802929E-04
               1.3233493058066633E-03
               2.8444683276208959E-04
              -7.1877189612621207E-04
              -4.1078375822483357E-04
              -1.4829397381361257E-03
              -4.0837069923510124E-03
              -1.0453269447455403E-03
              -1.0498664842093662E-03
               1.5102013398048410E-03
               1.5476660021346851E-03
              -4.6172905885187134E-03
               2.4521768296704308E-03
               3.0399217128341716E-03
              -1.4449033262618277E-03
               9.1793368727454783E-04
              -6.5689492564161424E-04
               1.3117752537650722E-03
              -3.1663368150256421E-03
               2.2369808605456653E-04
              -1.9079174307116938E-03
               2.1781062365339090E-04
               6.6468995898790492E-04
               1.9442452031800564E-03
              -7.6612593967904279E-04
               1.1112616945170275E-03
               4.4507392011025490E-04
              -2.9173894286022703E-03
               1.1041544009207690E-03
               2.6708251925643481E-03
               4.5435949031846458E-03
              -1.7552752725669496E-03
              -3.8076287878688808E-04
              -3.1874887401363658E-04
               3.7654298749935003E-04
              -8.6713644174176005E-04
               3.2001511752056894E-03
              -1.3380110874707237E-03
              -8.4092046712771931E-04
               5.2456493995921738E-06
              -6.1838012783661366E-04
              -1.1398660474382530E-04
               2.6509708629112289E-03
              -3.2697546650761250E-03
               2.0884881447522444E-03
              -6.3458367100962935E-04
              -2.5407523491693851E-03
              -3.6623980188943486E-03
               3.1940066816037876E-04
              -2.6932591057970468E-03
               4.9140064984919466E-04
               1.1005165882065797E-03
               2.8269055537938218E-04
              -7.9080689728237364E-04
              -1.0344298053559412E-04
               2.5924767711444190E-03
               4.2364110473965487E-04
               2.8608018610091416E-03
               2.0907738344474688E-04
              -4.0578133725600586E-04
               3.4955010785411300E-03
               4.2929852795827285E-04
               1.2538558802135372E-03
              -1.5610552166134288E-03
               1.1992876318683021E-03
               1.4452135178586985E-03
               1.2348781815566877E-03
               3.0298105994475077E-03
              -9.0416541163620343E-03
               1.4328659580689726E-03
               4.3319123908303319E-04
               4.9333373670060676E-04
               1.2321813279672059E-04
               1.2496787484853756E-03
               3.7004887078513063E-03
               3.2772460229470992E-05
              -3.3061495520293372E-03
              -5.0023048055600509E-04
               1.0461338676407087E-03
               3.1275602482747932E-03
              -5.4468099078367090E-04
               1.8353862248701156E-03
              -1.3021802636176952E-03
              -1.8731860741187179E-03
               4.4902776456524690E-04
              -1.4284414428542345E-03
              -6.8035813414358127E-04
               9.6850505030939091E-04
              -1.2323188935662484E-03
              -7.5885689798768803E-04
               2.3366640365345587E-04
               1.1337463578925790E-03
               2.9029303185319467E-03
               1.1449131381130614E-03
              -4.3668986501378671E-04
               3.3360785075188212E-04
              -1.3324194360204511E-03
              -1.3777513556532714E-04
               1.0897494961507959E-03
              -6.1375086518021527E-04
              -7.8642973393000634E-04
               1.3968902998884962E-03
              -8.1809116881521253E-04
              -1.2146922733578978E-03
              -9.3079270678991517E-05
               6.4675345558660221E-04
              -3.0470429135808451E-04
               5.2854028826807985E-04
              -1.0471224330781403E-03
              -9.0822516511344117E-06
              -3.6128954022878867E-04
               1.2717731497394389E-03
              -9.4071255699245749E-04
              -3.3250295710037098E-03
              -4.3047095720451196E-04
               1.4588705187498484E-04
               2.2926643735844644E-03
               1.8484271996746992E-03
               1.3001646829148190E-03
               1.1770498116340942E-03
              -5.0330303680933873E-03
              -1.9864095512515598E-04
              -9.7643247782487023E-04
               2.4512341226212844E-04
               1.0248566005552724E-03
               1.3655746335297400E-04
              -1.6356366613147135E-03
              -1.1593236885598201E-04
               2.8292403215380928E-04
               1.8049622231148610E-03
              -5.4556366980587157E-04
               1.6663896726380669E-03
               2.5460483643799820E-04
              -4.8910987004328584E-04
               1.7814189554524839E-03
               1.4476886899076171E-03
              -7.7411475442206042E-04
               8.1128213002134051E-05
              -1.6719461126967880E-03
              -1.3553988539435878E-03
              -3.2640719947529496E-03
              -6.4345949822589466E-04
               1.3302868326316802E-03
              -9.8877784393736870E-04
               1.4073942357158836E-03
              -1.2514177559165766E-03
               1.6114906126919558E-04
              -7.0084308669765005E-03
               3.7732193004791619E-04
              -3.0867961855407885E-04
               5.2330865068139277E-04
              -3.0624648357925402E-03
               1.5311064427842550E-03
               1.1807404658138569E-03
               9.6945996687274028E-05
               5.2769675841748303E-04
              -5.1909125484010579E-03
               2.7173989968965899E-04
              -6.0126522798116240E-04
               1.9175983193931169E-03
               3.5319814489592001E-04
               3.6433791048506052E-03
              -1.0779592503223083E-03
              -2.2049957928755057E-03
               1.3054290459981288E-03
              -3.2345304279099551E-03
               1.3740871412050595E-03
               1.9203102720088334E-03
              -1.2785280580459419E-03
               1.4179647604637257E-03
               4.2183983682412543E-04
              -3.1024403098464789E-04
               2.6977835626426634E-03
               9.4801487496518240E-04
              -2.5790491380440531E-03
              -1.2915765449282028E-03
               1.8340728152202297E-04
               3.3979337037426852E-05
               1.0337565409677572E-03
              -9.6361742862449825E-06
               1.2133430109278291E-03
               3.9354872515000652E-03
              -2.7120740237307171E-03
               2.6412410406186325E-03
               8.9192109666795961E-04
               3.5603565002690100E-04
               3.5158322899225395E-03
               1.2661115558770906E-03
              -1.7792026328105962E-03
               1.6136194598515470E-03
               1.6390326647013753E-04
               5.9527021411146246E-04
               6.6567637602551338E-04
              -9.6644430156825215E-04
               1.8086464935850406E-03
               1.6003522982576187E-03
               2.0405343589946210E-03
              -8.8893302770506541E-04
              -1.7589558873296720E-03
               6.0605178612823632E-04
              -2.7781991697659969E-05
              -4.3432335442772849E-03
              -1.8124392514626293E-03
               1.7424613084751535E-03
              -5.1722405289809264E-04
               5.8372884027959248E-04
              -2.4747408834049516E-03
              -8.1062291748515783E-04
              -1.3208222509596308E-03
               2.6450543426480213E-05
               1.7914457582431603E-03
              -1.1746736922469288E-03
               1.7220681010268095E-03
               1.0421043056627988E-03
              -9.6554189621347419E-04
               1.4393548342667784E-03
               1.8546183135026908E-03
              -8.9235935887346600E-04
               1.9409679239190247E-04
               1.4547114064231475E-03
              -9.2817919316590157E-04
              -2.8314367132360090E-03
              -3.2727431854386339E-04
              -6.1019267656691628E-04
               1.2970123563601527E-03
              -1.3996971483980179E-03
              -4.1787156782101362E-04
               1.2476349942596870E-03
              -4.5385404311495776E-03
              -1.4179189280211300E-04
               9.1123188605364861E-04
               9.7294793086039771E-04
               7.4022754022098100E-04
              -1.0745003332320621E-03
               2.0327535014886934E-03
               2.0365769776178235E-03
              -1.6530132869657806E-03
              -8.8537004567050884E-04
              -2.5826719664341679E-03
              -8.2182611744271267E-04
               2.8364023175464167E-04
               1.5345944245522192E-04
              -6.7864835194965715E-04
               2.8311351184454260E-03
              -1.2163996472430599E-03
              -5.8731908011821761E-04
               6.7922351704887774E-04
               8.3326835636945637E-04
               1.0906331650850365E-03
              -1.0116521402742497E-05
              -1.9096193779614447E-03
               3.6124881984218106E-04
               4.6086670049535052E-04
               6.6767730238496438E-04
              -7.6108769519623795E-04
              -2.2272057742170616E-04
               2.9749945164250584E-03
              -7.6612335292028052E-04
               1.1839871505335525E-03
               3.7104623041283701E-04
              -1.6909003252073126E-03
               3.7543056107985191E-05
              -6.1749319202142631E-04
              -2.1555764134675317E-03
               2.1286191441488530E-03
               1.1180533992333015E-03
              -2.4631524906656567E-03
               5.4506743560609860E-04
               8.1938530345433328E-05
               4.0399647470333649E-03
               3.2783454962241712E-04
              -1.4647323623134676E-05
               1.6349953137069742E-03
               1.4098238165865873E-03
              -4.2704130711575293E-03
               3.0735241450969655E-03
               1.0222974815107205E-03
               1.2954962075731418E-03
               1.5490440374618618E-03
               1.9043640009518195E-03
               1.8527442467826166E-05
              -1.9883228439786125E-03
              -1.7706202488961629E-03
               6.4411611180615897E-04
              -1.0648368149476291E-03
               2.1801089963126956E-03
               6.9473021688596010E-04
              -7.7584500548283841E-04
               3.6242171740876400E-03
               3.7148785857036527E-03
              -1.7199055686852973E-03
               1.7673318535802187E-03
               4.3273404801530570E-04
              -2.5384460405797954E-03
               2.6642412847190204E-03
               6.4931454847455441E-04
              -1.2770067783484758E-03
               1.3252783770208744E-03
               3.3469796865118873E-04
              -7.8422622252764438E-04
              -1.3562948476963268E-03
              -2.9920754703748964E-04
              -1.3561635895100997E-04
              -1.4784056696792976E-03
              -1.9995338562861543E-03
               2.0535924502129978E-04
              -1.1631903843277594E-03
              -9.4532580360230190E-04
               4.1167581487865116E-03
               1.1468686051429927E-03
               4.1166463226781976E-04
               3.5701359717325741E-03
               3.7717921505614656E-04
               1.8149887105326672E-04
              -1.6073759932557137E-03
              -1.8712771126834036E-03
               1.1395553716888043E-03
               2.5394231014447705E-04
               2.7976935089344822E-03
               4.2160697947528879E-04
               4.1516705657660498E-04
              -1.8259639656625017E-03
               2.6957808175267020E-04
              -1.5085147924354938E-03
               2.4187254817894382E-03
              -4.2688225342020914E-04
              -1.0073932157978074E-03
              -3.2656838306661653E-03
               6.8038240670165412E-04
               8.5413534323025054E-04
               1.4801721606083292E-03
              -7.3293856001131665E-04
              -8.4430461745805966E-04
              -7.1530885512210746E-06
               3.0579211665383728E-03
               1.9282334992195419E-03
              -6.4548222993583140E-03
              -5.6916040800871468E-04
               1.2213570900798281E-03
              -4.5480548981231186E-03
              -7.2952531648832412E-04
               1.9439444148603628E-04
               2.7255411075468130E-04
              -1.5492774479666514E-04
               3.2659134133376029E-04
              -9.1130004649333509E-04
              -1.2848470683933695E-03
              -8.6294616199181879E-04
              -1.2076784530844248E-03
              -3.7547244861426440E-04
               9.1937784277005988E-04
              -9.5544402663859753E-04
              -3.2764788693839457E-03
               2.4597796574873047E-03
              -4.2528525525541513E-04
               6.4263898505007792E-04
               1.3118735101042992E-03
              -2.6638817884859836E-04
              -2.1750672144486200E-03
               1.5172633211727148E-03
              -2.4737950904945400E-04
              -1.4650894684015835E-03
              -1.6189893082475708E-03
               4.4207060046722762E-04
              -3.4619961933947440E-04
               1.2087989537916731E-03
              -2.0442882711446740E-03
              -3.4832289115819610E-04
               5.7923686816955676E-04
              -2.0604303026554196E-03
               1.3857852161178071E-03
               3.1936646646580471E-03
               1.1425364494888355E-03
              -3.2737515246843603E-03
               2.0896546369798263E-03
               4.0755015492606364E-04
              -9.3167266518752912E-04
              -2.8938729499628172E-03
               5.9177008769398947E-04
              -2.4528725357557202E-03
               9.7300429328985797E-04
               1.2652350248349359E-03
               2.0458970172108318E-03
              -2.7961344740407442E-03
               1.6669576735661952E-03
              -7.3544468364366124E-04
              -8.1671327065253906E-04
              -1.1027283128911248E-03
              -9.5319990759978044E-04
              -3.5128176978075579E-04
               5.6062478599698811E-04
               9.8513207793298049E-04
              -3.1131259136218600E-03
              -1.5184339274461639E-03
              -2.2804717240426761E-03
               2.8260605003065345E-03
               1.7552212319892392E-03
               2.6646566911761710E-03
               7.3933280241239314E-04
              -1.7365412920317680E-03
              -1.3528923698511602E-04
              -1.5473534010157746E-04
               1.2196721584868263E-05
              -3.0865126530380625E-03
               7.5062488067070246E-04
               4.7401259011265113E-04
              -2.8458945306891279E-03
               1.2318275049452417E-03
               5.4911788389043360E-03
               3.3935687954302589E-04
              -1.5085559939600065E-03
               6.5531609246393709E-04
               4.4284240859808147E-03
              -9.9946998242059324E-04
               2.5553945548873378E-03
              -3.6061676766889366E-03
               2.3421841802250308E-03
               8.6939831455518644E-04
              -3.9040273797990689E-03
              -4.4160703784569294E-04
               1.3094945826511019E-03
               4.5278432792934505E-04
              -4.0707143102992992E-05
              -2.3163061957480794E-03
               5.3855989515284419E-04
               1.5992144232670959E-04
               2.0790814034612771E-05
               2.4087925283461766E-03
               1.0026657930492238E-03
              -3.8850829497620739E-04
              -2.2216122772665038E-04
               9.8925015348318569E-04
               5.0458476725371093E-03
              -5.3228313235206761E-04
              -2.4709356880612795E-03
              -3.5482146325160858E-04
               2.5736056609108627E-04
               3.4105250277754334E-04
              -1.4153543002099156E-04
              -1.2876442129643824E-03
              -1.2585075456181352E-03
               1.1782520666436385E-04
               4.4512313336935241E-04
              -7.1027102869552008E-04
              -8.5065034643896464E-04
              -4.4162945885537364E-04
               4.4708727419438942E-03
               8.7410487090221884E-04
              -8.8689031647005458E-04
               2.4380763177113364E-05
              -2.0291271334681436E-03
              -3.9614914649703211E-03
               3.6578059532726328E-03
              -5.4350076606484961E-04
               1.0620214377832365E-03
              -1.1446662843181708E-04
               3.3628833994585886E-04
              -2.4443454684873892E-03
               1.3590739833801492E-03
               1.2823164436922391E-03
              -3.0654090222098136E-04
              -1.4442046841070259E-04
               3.7455800723268655E-04
               4.2583537898984117E-03
              -6.2677685300532113E-03
               2.0817752910415217E-03
              -8.4831870548072311E-05
               1.8031306702168152E-03
               1.1271325184870834E-03
               7.2897232663951745E-04
               1.1792292089300412E-03
              -2.8477730565349959E-03
               2.9290548993776233E-04
              -2.2568886787392205E-03
               1.2261608352885755E-03
               1.3887645013926789E-04
               6.2311453057070209E-04
               3.8603613197086227E-04
              -3.1098864470927180E-03
              -1.1236522624410194E-03
               2.9095649158580698E-03
               7.6154235128764950E-04
              -1.0471770460673074E-03
              -5.6470539021265644E-05
              -6.8858415768025796E-04
              -1.9589655291597362E-04
              -1.1179817367808773E-04
              -3.8765484969137754E-03
               7.8430482832793683E-04
              -7.9857221075727968E-04
              -4.5228251867764790E-04
               9.5287696583791379E-06
               6.0247921584770424E-04
               3.7540504661178359E-04
               8.2363359449699638E-04
               3.0458621286722789E-04
              -2.9781352592991308E-05
              -4.9025536817963217E-04
               5.9389138278558050E-04
               2.5063579848863803E-05
               1.4504590089134855E-03
               1.4388894830479153E-03
              -1.9595487781664351E-03
              -1.3232241635966083E-03
               2.1041947003859452E-04
               5.1988345159639305E-04
               7.3720180196485492E-04
              -2.4213045494535100E-03
               1.9700357650655619E-03
               1.0243850151982149E-04
               7.5546544468542412E-03
              -2.2006770621140381E-03
              -7.4227283664855294E-04
               5.9243880593564562E-04
              -3.8423235111695398E-03
               4.0857152031843497E-03
               2.9424686025000964E-03
               6.5050307471109352E-04
              -4.0153970705262389E-03
               1.8688887264708013E-04
               1.1102450812484654E-03
              -6.2040180441710034E-04
              -3.3634525277809490E-03
              -8.3135861798750799E-04
               1.8613195510271772E-03
               9.8575865181444941E-04
              -1.6897565689553168E-03
              -2.9552339417266578E-03
         &END THERMOSTAT_ENERGY
         &RNG_INIT
Wiener process for Thermostat # 1        1 F T T   1.1638576843911770E+00        1027709574.0        3873326225.0        4026750995.0        2870482621.0         916399108.0        1488007396.0             12345.0             12345.0             12345.0             12345.0             12345.0             12345.0             12345.0             12345.0             12345.0             12345.0             12345.0             12345.0
Wiener process for Thermostat # 2        1 F T T  -1.6361365602781247E-01         475430430.0         838575149.0        3924287691.0        2956562124.0        4277000249.0         385048698.0        3692455944.0        1366884236.0        2968912127.0         335948734.0        4161675175.0         475798818.0        3692455944.0        1366884236.0        2968912127.0         335948734.0        4161675175.0         475798818.0
Wiener process for Thermostat # 3        1 F T T   4.9238677433802991E-01        2236815994.0        2904061313.0        1096479639.0        2682878068.0         506189902.0        2011852133.0        1015873554.0        1310354410.0        2249465273.0         994084013.0        2912484720.0        3876682925.0        1015873554.0        1310354410.0        2249465273.0         994084013.0        2912484720.0        3876682925.0
Wiener process for Thermostat # 4        1 F T T  -1.8321210126582288E-01         256434783.0        3674109804.0          82488867.0        3310824456.0        1623887517.0        2115042609.0        2338701263.0        1119171942.0        2570676563.0         317077452.0        3194180850.0         618832124.0        2338701263.0        1119171942.0        2570676563.0         317077452.0        3194180850.0         618832124.0
Wiener process for Thermostat # 5        1 F T T  -1.5771313565614453E+00        3613726671.0        2272486088.0        2143540753.0        1441342447.0        1046152684.0        3485901261.0        1597262096.0        3906379055.0        3312112953.0        1016013135.0        4099474108.0         275305423.0        1597262096.0        3906379055.0        3312112953.0        1016013135.0        4099474108.0         275305423.0
Wiener process for Thermostat # 6        1 F T T   9.8634547341380852E-01         382951453.0        2546656444.0        3776781595.0         537577592.0        4266451090.0        3639284478.0          97147054.0        3131372450.0         829345164.0        3691032523.0        3006063034.0        4259826321.0          97147054.0        3131372450.0         829345164.0        3691032523.0        3006063034.0        4259826321.0
Wiener process for Thermostat # 7        1 F T T  -1.6786644981765897E+00         995637958.0        2604245385.0        2537014333.0         914769465.0        1509162279.0         962884333.0         796079799.0        2105258207.0         955365076.0        2923159030.0        4116632677.0        3067683584.0         796079799.0        2105258207.0         955365076.0        2923159030.0        4116632677.0        3067683584.0
Wiener process for Thermostat # 8        1 F T T   1.1578075389105409E+00        3160371741.0        3967515808.0        2203135492.0         538671330.0         297500144.0        3056481119.0        3281794178.0        2616230133.0        1457051261.0        2762791137.0        2480527362.0        2282316169.0        3281794178.0        2616230133.0        1457051261.0        2762791137.0        2480527362.0        2282316169.0
Wiener process for Thermostat # 9        1 F T T   6.5664587218972970E-01         857849683.0        3633744669.0        1100265681.0         938742366.0        1154841191.0         388441233.0        3777646647.0        1837464056.0        4204654757.0         664239048.0        4190510072.0        2959195122.0        3777646647.0        1837464056.0        4204654757.0         664239048.0        4190510072.0        2959195122.0
Wiener process for Thermostat # 10       1 F T T  -2.0128976215493748E+00         210688208.0        1811039331.0         436559168.0        2754775782.0         314078517.0        1793513375.0        4215590817.0        3862461878.0        1087200967.0        1544910132.0         936383720.0        1611370123.0        4215590817.0        3862461878.0        1087200967.0        1544910132.0         936383720.0        1611370123.0
Wiener process for Thermostat # 11       1 F T T  -1.5258422594726462E+00         307966315.0         971296991.0        3681405957.0         328754300.0        4116151870.0        3908098618.0        1683636369.0         362165168.0         814316280.0         869382050.0         980203903.0        2062101717.0        1683636369.0         362165168.0         814316280.0         869382050.0         980203903.0        2062101717.0
Wiener process for Thermostat # 12       1 F T T   3.2688450777281131E-01         324522272.0         346174317.0        3872829144.0        1995175258.0        1234730990.0        1362930175.0         272317999.0         166758548.0         310112982.0         201045826.0        1680231254.0         118290799.0         272317999.0         166758548.0         310112982.0         201045826.0        1680231254.0         118290799.0
Wiener process for Thermostat # 13       1 F T T  -3.3304540650974845E-01         798464748.0        1368416306.0         377870980.0        1023960334.0        3565924031.0         539680912.0        2245755202.0        1652682525.0        2865544364.0         721509566.0         209733568.0         592362218.0        2245755202.0        1652682525.0        2865544364.0         721509566.0         209733568.0         592362218.0
Wiener process for Thermostat # 14       1 F T T  -3.0692399428530540E-02        1821618781.0        1221475564.0         167914129.0        2629090983.0        3754118317.0        1223852554.0        3003961408.0        3529909391.0          14538032.0        3603919910.0         566682685.0        1235016484.0        3003961408.0        3529909391.0          14538032.0        3603919910.0         566682685.0        1235016484.0