 # Version information for this restart file 
 # current date 2024-11-24 09:37:24.935
 # current working dir /home/jh9412/HiJihye/comp-lab-class-2024/week12/Runs/w2
 # Program compiled at                              Sat Dec 12 18:27:15 EST 2020
 # Program compiled on                                         cs001.nyu.cluster
 # Program compiled for                                                nyu-intel
 # Source code revision number                                       git:8c64c6e
 &GLOBAL
   PRINT_LEVEL  LOW
   PROJECT_NAME water_aimd_1ns_every0.5fs
   RUN_TYPE  MD
   WALLTIME 21600
 &END GLOBAL
 &MOTION
   &MD
     ENSEMBLE  NVT
     STEPS  2000
     TIMESTEP     4.9999999999999994E-01
     STEP_START_VAL  97
     TIME_START_VAL     4.8500000000000036E+01
     ECONS_START_VAL    -1.1023558357480233E+03
     TEMPERATURE     3.0000000000000000E+02
     &THERMOSTAT
       TYPE  GLE
       REGION  MASSIVE
       &GLE
         NDIM  5
         A_SCALE     1.0000000000000000E+00
         A_LIST     1.8595758612559999E+02    2.7263853498399998E-01    1.1526100454610001E+01   -3.6414578262600003E+01 \
             2.3173375816020001E+02
         A_LIST    -2.7809524712060002E-01    8.5951591808710006E-05    7.2189048017650004E-01   -1.9844539343859999E-01 \
             4.2409257583420001E-01
         A_LIST    -1.4825808131210000E+01   -7.2189048017650004E-01    1.3590902121280000E+00    5.1498896280349999E+00 \
            -9.9949268450990001E+00
         A_LIST    -1.0372189126880000E+01    1.9844539343859999E-01   -5.1498896280349999E+00    2.6661910891169999E+01 \
             1.1507715495310000E+01
         A_LIST     2.1801346360420001E+02   -4.2409257583420001E-01    9.9949268450990001E+00   -1.1507715495310000E+01 \
             3.0958394565589998E+02
         &THERMOSTAT_ENERGY
              -1.4745964725020170E-03
              -1.0365682570241715E-05
              -5.9350428307471201E-04
              -1.9650492540646590E-03
              -3.7140676045901172E-05
               3.3300321814496736E-03
              -2.4310248703225358E-03
               3.3743769423454878E-03
               2.3015513842431479E-03
               4.1579932135964040E-06
               2.9572550155679386E-03
               4.9610549754954686E-04
               2.9788446199890827E-03
               6.6862445867712323E-04
               1.9687021623695589E-03
              -1.3794195989974838E-03
               9.0679030519121744E-04
               1.3193620342608948E-03
               2.4626652049071198E-04
              -1.5772977769790140E-03
              -1.1031381129066532E-03
               1.9668827325425345E-03
              -4.8449414091733675E-04
               3.1311916678675302E-04
               8.9911597608969976E-04
              -1.4748398772400713E-03
               3.1577949989298883E-03
              -5.1784809844737753E-04
               6.2652149696925904E-04
               5.3500883195525557E-04
              -2.6977123909344180E-04
              -1.0686853571141228E-03
              -1.2331802372774912E-05
               1.5358874763973433E-03
              -4.4450293376077444E-03
               3.7419867156216415E-03
              -3.4255115533299968E-04
              -4.5290258214081817E-04
               1.6642991750389350E-04
               1.4380975968170782E-04
               1.0545133674680295E-03
              -6.4034154120962269E-04
              -5.1911913823755092E-04
               2.1180618315391449E-03
              -2.7945430666817400E-03
               1.6404944626302628E-03
              -1.0376636073438257E-03
              -9.6890072249453601E-05
              -7.5214355270743314E-04
               4.6815477411080479E-04
               1.1940470519256055E-04
              -6.0815355453369192E-04
              -4.5582304124384585E-04
               8.4585028917720463E-05
              -2.9964622981365529E-03
              -1.3174200135580882E-03
              -1.1315294079729801E-03
               9.0935798291805832E-04
               1.5138704409218529E-03
              -3.6583320544579597E-03
               2.3523014738478787E-03
               2.8734694379061627E-03
              -1.5166518560933021E-03
               7.4346683447723235E-04
              -8.6746168255158571E-04
               1.2531970150322723E-03
              -3.2386488899089601E-03
              -3.1125943395448415E-04
              -1.9370849949374514E-03
               1.1552918406889816E-04
               2.8931119475682774E-04
               1.8511923203728660E-03
              -9.0996318066385710E-04
               8.0206451669417118E-04
               1.9852171406762459E-04
              -3.3996803389837742E-03
               1.0286772025633831E-03
               2.7546729763875530E-03
               4.2729830710123958E-03
              -1.2641586040676570E-03
              -5.0029693573460266E-04
              -4.5991944429723457E-04
              -7.5293735874700895E-05
              -3.4012065796360674E-04
               3.0846058456129883E-03
              -1.3202928150030460E-03
               4.1550662846362441E-06
              -3.5551602106867822E-05
              -8.0287128768483313E-04
              -3.4095818902051954E-04
               2.6698378774027000E-03
               1.0549205518566246E-03
               2.3945942633199690E-03
              -1.6354941967319594E-03
              -1.9905585661714590E-03
              -3.3635386628924286E-03
               2.5730156702418562E-04
              -3.4798168905392154E-03
               5.2343738211065634E-04
               8.0550653232998965E-04
               2.3702410849500420E-04
              -7.5322043077979094E-04
               1.4835320157121352E-04
               2.1589333001046222E-03
               3.1759079370953671E-04
               2.8080433310615884E-03
               2.4036686347581407E-04
              -4.4344398669580261E-04
               3.2200899106474999E-03
              -4.7871649003424139E-05
               1.2467063852748723E-03
              -1.1899620987068436E-03
               5.3718682012831068E-04
               1.2376215667442400E-03
               7.9507965170042883E-04
               2.3411461338378329E-03
              -8.6099218265493459E-03
               1.2861810847096388E-03
               3.7732663992586006E-04
               2.6806760303257909E-04
               1.6087637337607817E-04
               1.2956184669715457E-03
               2.9377812076411890E-03
              -7.1872323897353486E-04
              -3.3178577205721822E-03
              -1.3957226611470473E-03
               8.4910290077108578E-04
               2.6573297850644266E-03
              -4.7698400670889685E-04
               2.2121285017261817E-03
              -1.3049493506856569E-03
              -1.7971429938937334E-03
              -7.4961643405397499E-05
              -2.8327299055335509E-03
              -6.4879683929895422E-04
               1.2339101899237377E-03
              -1.2236655688913666E-03
              -3.7740025321368392E-04
               6.5142235306416300E-04
               8.9358361234765456E-04
               2.9571579471940387E-03
               1.3841578511295620E-03
              -2.2836800614543215E-04
               5.8880386537727325E-04
              -1.5676805828336627E-03
               1.7114300459801878E-04
               4.9248748384224546E-04
              -9.1618460718487465E-04
              -9.7206958569849783E-04
               1.7491890157151301E-03
              -9.1632351693025503E-04
              -1.5860468767178242E-03
               2.2770149093374339E-05
               5.3089124656124117E-04
              -2.9916449680435339E-04
               9.1731927669567407E-04
               4.1492545114266296E-04
               1.2869370119324614E-04
              -2.2569401335767429E-04
               1.5462592648602164E-03
              -9.3338266827697766E-04
              -3.3654987085430408E-03
              -8.0073683408059325E-04
               2.1023530525907824E-04
               2.7219726278486910E-03
               1.6455795087815112E-03
               1.0777475697752944E-03
              -1.0134862240237968E-03
              -5.0881735488743102E-03
              -2.7407764212461581E-04
              -4.3604458461023155E-04
              -3.8025614057300922E-04
               9.1132633651667700E-04
               1.1432771454807338E-04
              -9.4517927913900682E-04
              -4.3889106543202033E-04
              -1.1037324500596580E-04
               1.3172781619157992E-03
              -9.4596081274134604E-04
               1.0556250654984141E-03
              -1.0428059040879707E-03
              -1.4047060991700185E-04
               1.5473382855748783E-03
               1.6254717535737805E-03
              -5.1713863056536402E-04
               1.1845858780723978E-04
              -1.8176794573467176E-03
              -1.2843387221542490E-03
              -4.4021079513458083E-03
              -6.7845551863881474E-04
               1.3688462573099131E-03
              -6.0085965565447020E-04
               1.3221086607205521E-03
              -1.0566967576976533E-03
               2.5295419951616168E-04
              -5.9606150467100653E-03
               2.1293265071570147E-04
              -8.8470573875266999E-04
               2.2340310537219226E-04
              -1.0621715286213865E-03
               9.1950523007229296E-04
               1.3975320235729959E-03
               4.0869860148220181E-04
               6.7361750760425491E-04
              -5.2226241973172549E-03
               3.9223884730383755E-04
              -4.4777995415514236E-04
               1.4750178655720926E-03
              -5.4291099905577384E-04
               3.4864133920309310E-03
              -1.1153713221844857E-03
              -7.3023580873599666E-04
               1.3166199409722825E-03
              -3.6092476852922378E-03
               1.2042491209913813E-03
               2.0318783743071460E-03
              -5.4163113216995054E-04
               1.3079250579372506E-03
               8.8306563214406207E-04
              -7.4125319303061643E-04
               1.7054733085950116E-03
               9.5599136134817296E-04
              -3.3666391165378595E-03
              -1.7095597996275052E-04
              -2.1093063683118388E-04
               1.5571010060321357E-04
               1.1269031965759763E-03
               3.0798059857826412E-04
               9.9953809129938289E-04
               3.9629443722491373E-03
              -2.1580983650694588E-03
               2.9222612606330878E-03
               8.3034308944487803E-04
              -1.0044938246588157E-04
               2.8938976260775070E-03
               1.0976204495004565E-03
              -2.2051863984246340E-03
               1.7425262294705720E-03
              -1.8096957722585886E-05
              -1.3863688569648407E-04
               5.5252938746307699E-04
              -1.0757950604058371E-03
               2.2018632302673695E-03
               1.5807520885660980E-03
               1.5445863137085679E-03
              -2.0988296213868800E-04
              -1.1460376012855259E-03
               8.2260128569949949E-04
               6.5768590804607180E-04
              -4.4745701946629513E-03
              -4.4488063156084326E-04
               1.6604360608974533E-03
              -4.9355581168698543E-04
               2.9145095681414089E-04
              -1.4919143071779001E-03
              -1.4806696092614026E-03
              -1.5151181704352226E-03
               1.8443944657405446E-04
               1.8043700189105702E-03
              -1.2685099787166200E-03
               1.7810348561143833E-03
               1.6200684455340746E-03
              -5.6274568263984883E-05
               1.3015835965585049E-03
               1.8687779621750929E-03
              -7.0775549702254445E-04
              -6.6431382504167596E-05
               1.2356313212894992E-03
              -9.3295300033621352E-04
              -2.1512767976685975E-03
              -3.7668648312531004E-04
               1.1681890601615796E-04
               1.2452339685999530E-03
               7.3795178630711418E-04
              -5.2743880071373253E-05
               1.2629047126944443E-03
              -4.4862524226758731E-03
              -2.2728446618016659E-04
              -1.4911704078598735E-03
               4.5890409977190883E-04
              -8.4825114974357340E-04
              -6.4802021249669582E-04
               2.1168159138984528E-03
               2.1294204095836239E-03
              -1.6385980141410148E-03
              -1.0994321176783254E-03
              -2.5553520704318070E-03
              -6.5090401005242189E-04
               2.0587048731649025E-04
               4.4984373130892499E-04
              -6.0823695604053565E-04
               2.8720295685720019E-03
              -9.4891065918395370E-04
              -8.6255680888348450E-04
              -8.2230911751362688E-04
               4.5552886065937490E-04
               1.3027128859169300E-03
               4.3406872665734402E-04
              -1.8962866688363228E-03
               1.3296345252589211E-04
               8.0407484899318142E-04
               6.8042528710190932E-04
              -7.9977082897702157E-04
              -7.2661679639801180E-04
               2.7999431093360116E-03
              -2.9931860357078409E-04
               1.3033221230445025E-03
               5.7891844804666519E-04
              -1.7214920687351424E-03
               2.0129555999345877E-04
              -2.0424499972663476E-03
              -1.9414464621248298E-03
               2.0774741603128278E-03
               9.6427593093555272E-04
              -2.8889415928100726E-03
               1.6077218110988506E-04
               1.5248430566158560E-04
               3.9521371347768187E-03
               5.0786374315637238E-04
              -2.4611091998439640E-04
               1.4344931059898363E-03
               1.2674715898725786E-03
              -3.8255332342521410E-03
               3.1031758961874070E-03
               4.1951054483759095E-04
               2.3988038452122556E-04
               1.6024041573422781E-03
               1.7834232775592769E-03
              -3.7877497319187487E-04
              -2.0750592713973510E-03
              -1.7361644361649226E-03
               4.4504297018144954E-04
              -1.4449726096744308E-03
               5.2978574005711982E-04
               8.5932188533177016E-04
              -6.8831774465116541E-04
               3.3554001670290314E-03
               3.8996766322929783E-03
              -1.6639655014374732E-03
               1.9128074865449056E-03
               5.5022830231464212E-04
              -1.8110558279050505E-03
               6.7822856443690272E-04
               6.7414679945231037E-04
              -6.9345403779575050E-04
               1.4353631659178212E-03
               2.2041637339280243E-05
              -8.2625463636001927E-04
              -1.2111298477294936E-03
               5.6463397392374139E-04
               1.8311962482009457E-04
              -5.9853930868248174E-04
              -2.0027141826601293E-03
               2.4858693401601684E-04
              -1.3530116158686108E-03
              -1.6388446306529443E-03
               4.0573351014025526E-03
               1.5109158016255503E-03
              -5.5746648055671210E-05
               3.8268948319567257E-03
               3.0999844145151388E-04
              -2.3479795162421733E-04
              -1.5482421133394576E-03
              -2.2682791225052583E-03
               1.1273050992880742E-03
               9.7774035984120336E-05
               2.4566620385514668E-03
               4.0301923726015592E-04
               5.0016407819469138E-04
              -1.7647025502256232E-03
               8.8068920091192082E-04
              -1.3517362922682240E-03
               2.6382766583785962E-03
               4.6850615088208958E-04
              -1.2060878670940107E-03
              -3.2626846703687888E-03
               6.3210747924455943E-04
              -9.7170445636295057E-05
               1.4461463776332091E-03
              -3.4667844628261221E-04
              -7.8641521608228179E-04
              -5.3941439506125096E-04
               2.7296534240142754E-03
               1.6376122799801188E-03
              -6.6261823025172643E-03
              -6.7617387263588507E-04
              -5.1521941668438678E-04
              -2.6368556601369369E-03
              -5.9438936019916289E-04
               2.4300373082276438E-05
               2.0713356191799220E-04
              -3.0030408946110605E-04
               9.5455283228200591E-04
              -7.9244062206412921E-04
              -1.0593265345103715E-03
              -5.9945942325622639E-04
              -1.5966322901732972E-03
               4.0334209463933749E-04
               7.2572204691688112E-04
              -1.6954557387827080E-03
              -3.5153769588714789E-03
               3.2960405995696258E-03
              -4.2740909202574929E-04
               1.0183739798704683E-03
               1.3448722134062421E-03
              -6.8531572492389395E-04
              -1.0532981919016996E-03
               1.5188329532354447E-03
              -1.0944529568744613E-03
              -1.3732333397569708E-03
              -1.4597735475350522E-03
              -2.8616174109291766E-04
              -6.0178177117217540E-04
               2.6421119836587260E-03
              -2.0951752849006754E-03
              -5.2994312556723256E-04
               6.1477081814135799E-04
              -1.4380961802983971E-03
               1.3987597775306955E-03
               2.6207067036772653E-03
               5.8604018616555456E-04
              -3.6118999000159047E-03
               1.9465557287950156E-03
               5.0116946834969809E-04
              -1.0331154651709378E-03
              -4.1694316170364995E-03
               9.1696649180525349E-04
              -2.4480012140363377E-03
               1.3617219978948173E-03
               1.2772538459102176E-03
               1.9052851805544514E-03
              -3.1062901173905897E-03
               1.7177598586882673E-03
              -4.2937548208339319E-04
              -5.5733685888929830E-04
              -4.4078581937969741E-04
              -8.6474694045448014E-04
               1.1004034179624414E-05
               5.8691871043696877E-04
               7.2327864647883438E-04
              -3.1887318783126841E-03
              -1.6584775379845744E-03
              -1.6480291690506275E-03
               2.7912610110724257E-03
               1.8360779688415716E-03
               2.6283729381432557E-03
               1.3237962444098696E-03
              -2.0164246649016114E-03
              -1.3416131314457971E-03
              -7.8251388289344274E-05
              -2.6533868752376635E-05
              -4.1022214280219318E-03
               1.6714888231093589E-04
               5.9697164973137110E-04
              -3.4995702258879655E-03
               1.2054947453573525E-03
               5.5331698175112333E-03
               4.3526885754005253E-04
              -1.5591708304154436E-03
               6.6927894656539175E-04
               5.2776413067264641E-03
              -9.2213046938148264E-04
               2.5191788535552937E-03
              -3.0742116539363689E-03
               2.3564195975657371E-03
               8.3359330912272664E-04
              -3.4299607969177754E-03
              -2.2867323661757185E-04
               1.6013257667915439E-03
               1.4878366640322586E-03
               3.5184586282862984E-05
              -2.4784734944504174E-03
               9.0761294056399629E-04
               9.4382205040226806E-04
              -6.3808339437434916E-08
               2.0550703765883122E-03
               1.2740198700735318E-03
              -6.0380460771137644E-04
              -2.8320227824688666E-05
               9.8293078835057571E-04
               4.8405920246731701E-03
              -6.4227320971513898E-04
               1.0352946133449904E-03
              -1.4474245793824229E-04
              -4.4365462098972343E-04
              -3.9449515235968891E-04
              -1.6109409983099013E-04
              -7.2320400828623148E-04
              -1.7479077027476478E-03
               1.9259609321388248E-04
               1.3808408683676474E-04
               1.6943961715100994E-04
              -6.5795745462417536E-04
              -1.0380305309395947E-03
               4.4888421082438382E-03
               9.5228408790230964E-04
              -8.9127761256776821E-04
              -9.0549476766585749E-04
              -3.0647025699822722E-03
              -3.9933868932545804E-03
               4.0776766139856008E-03
              -2.9389696841113121E-04
               1.1216459790658623E-03
               8.2710795523044086E-05
               3.3383364034261375E-04
              -2.4093429370011703E-03
               1.2452203285370652E-03
               1.9172702165916680E-03
              -2.2771046098369655E-04
               1.1815074970510888E-04
               3.5316705794991021E-04
               1.5757883564494241E-03
              -5.7879139943625164E-03
               1.9528585833469233E-03
               2.7606736748472054E-05
               1.8837235283790765E-03
               1.1080647958840424E-03
               6.4761782751168327E-04
               5.7103496577552010E-04
              -3.0628750119525193E-03
               3.5986904984843876E-04
              -2.3507555219331468E-03
               1.0106979392940679E-03
               1.8204855240147317E-04
               6.6292827210994386E-04
               4.9078384555074428E-04
              -4.2851929579302579E-03
              -1.1127762061280818E-03
               2.8388658746626330E-03
               7.5656759520483484E-04
              -8.4072620222730638E-04
               3.8679717220150780E-04
              -6.7618882147997485E-04
              -1.3303845980579797E-04
               6.7891323753500486E-04
              -2.8956784776218297E-03
               7.5321112491097116E-04
              -9.0102597414631262E-04
              -3.8802784531214742E-04
              -2.0826566061932300E-05
               4.9740778567829895E-04
               5.0328205106285319E-05
               1.2975530970713038E-03
               7.3820939441006806E-04
               2.8731364756176043E-04
              -4.4064004805805510E-04
               6.1700433174019748E-04
               5.4912346568015448E-05
               1.1845696027848779E-03
               1.0363359467422714E-03
              -2.0236974109208781E-03
              -1.5205306931637980E-03
               1.4368427696721014E-04
               6.2283617336991639E-04
               7.6289624837582836E-04
              -2.4692556551432483E-03
               1.7475772992612405E-03
              -3.6729392050621073E-04
               8.0516610364277773E-03
              -1.9809465135188827E-03
              -1.3530208288714467E-03
              -8.5808854287920450E-05
              -3.5314325635945189E-03
               4.2554080623709318E-03
               3.3327976399525287E-03
               8.2139391687344936E-04
              -3.8476453058705275E-03
               2.1402704313896757E-04
               1.1013937807923201E-03
               1.8426010747392261E-04
              -2.7438342494436937E-03
              -6.3204105113834569E-04
               1.7277974796527874E-03
               1.2978149440668100E-03
              -1.6745184812207469E-03
              -2.7633558712545549E-03
         &END THERMOSTAT_ENERGY
         &RNG_INIT
Wiener process for Thermostat # 1        1 F T T  -6.8135578868973701E-01        2303186604.0        1001709479.0        3054293529.0        1559154350.0         101716035.0        3921733187.0             12345.0             12345.0             12345.0             12345.0             12345.0             12345.0             12345.0             12345.0             12345.0             12345.0             12345.0             12345.0
Wiener process for Thermostat # 2        1 F T T   9.2885656844942210E-01          94647057.0         435719689.0        1727403423.0         423388902.0        1533216418.0        1408812497.0        3692455944.0        1366884236.0        2968912127.0         335948734.0        4161675175.0         475798818.0        3692455944.0        1366884236.0        2968912127.0         335948734.0        4161675175.0         475798818.0
Wiener process for Thermostat # 3        1 F T T  -1.3704119956801735E+00        3378373042.0        1540781493.0        3871447415.0        3700659477.0         622798064.0        2721601083.0        1015873554.0        1310354410.0        2249465273.0         994084013.0        2912484720.0        3876682925.0        1015873554.0        1310354410.0        2249465273.0         994084013.0        2912484720.0        3876682925.0
Wiener process for Thermostat # 4        1 F T T  -2.0908226252225759E-01        3048963678.0        2572377882.0        3409694336.0        3304951246.0         505330274.0        2287117057.0        2338701263.0        1119171942.0        2570676563.0         317077452.0        3194180850.0         618832124.0        2338701263.0        1119171942.0        2570676563.0         317077452.0        3194180850.0         618832124.0
Wiener process for Thermostat # 5        1 F T T   5.4640768501988612E-01        2834781886.0        1492595720.0        3654097442.0        4160716703.0        2928424725.0         442240023.0        1597262096.0        3906379055.0        3312112953.0        1016013135.0        4099474108.0         275305423.0        1597262096.0        3906379055.0        3312112953.0        1016013135.0        4099474108.0         275305423.0
Wiener process for Thermostat # 6        1 F T T  -9.0233695801299063E-01        2053720667.0        4060385699.0        3871735732.0        1981651928.0        2775975831.0        1513617131.0          97147054.0        3131372450.0         829345164.0        3691032523.0        3006063034.0        4259826321.0          97147054.0        3131372450.0         829345164.0        3691032523.0        3006063034.0        4259826321.0
Wiener process for Thermostat # 7        1 F T T  -1.1448138261016925E+00         578046424.0         587010970.0        3806868043.0        3203857698.0        3348725618.0          13551607.0         796079799.0        2105258207.0         955365076.0        2923159030.0        4116632677.0        3067683584.0         796079799.0        2105258207.0         955365076.0        2923159030.0        4116632677.0        3067683584.0
Wiener process for Thermostat # 8        1 F T T  -4.9942748041133628E-01        2086303234.0        4003462478.0        2001424215.0        2532604640.0        3738168771.0         739541328.0        3281794178.0        2616230133.0        1457051261.0        2762791137.0        2480527362.0        2282316169.0        3281794178.0        2616230133.0        1457051261.0        2762791137.0        2480527362.0        2282316169.0
Wiener process for Thermostat # 9        1 F T T  -5.0014403109652328E-01        1444431954.0         834691990.0        2699024569.0         154819775.0        3883440030.0        3201927712.0        3777646647.0        1837464056.0        4204654757.0         664239048.0        4190510072.0        2959195122.0        3777646647.0        1837464056.0        4204654757.0         664239048.0        4190510072.0        2959195122.0
Wiener process for Thermostat # 10       1 F T T   6.7685208252997675E-01         196137891.0        1689301831.0        2345543104.0         493660411.0        2155649404.0        4227877505.0        4215590817.0        3862461878.0        1087200967.0        1544910132.0         936383720.0        1611370123.0        4215590817.0        3862461878.0        1087200967.0        1544910132.0         936383720.0        1611370123.0
Wiener process for Thermostat # 11       1 F T T  -2.9977702572397704E+00         831752484.0        2637698075.0         559261462.0         724581136.0         680126503.0        1014670405.0        1683636369.0         362165168.0         814316280.0         869382050.0         980203903.0        2062101717.0        1683636369.0         362165168.0         814316280.0         869382050.0         980203903.0        2062101717.0
Wiener process for Thermostat # 12       1 F T T  -1.8030680119411406E+00         665474448.0        3138587388.0        4153793629.0        3857834366.0        1071671243.0        3783933816.0         272317999.0         166758548.0         310112982.0         201045826.0        1680231254.0         118290799.0         272317999.0         166758548.0         310112982.0         201045826.0        1680231254.0         118290799.0
Wiener process for Thermostat # 13       1 F T T   1.4646875845066154E+00        1145569407.0        4036977356.0        3896610527.0        2827605318.0         692333740.0        1617033940.0        2245755202.0        1652682525.0        2865544364.0         721509566.0         209733568.0         592362218.0        2245755202.0        1652682525.0        2865544364.0         721509566.0         209733568.0         592362218.0
Wiener process for Thermostat # 14       1 F T T  -9.6557002727442187E-01        3276239994.0        1332655242.0        1706406106.0        3616612531.0        3772562864.0         854614745.0        3003961408.0        3529909391.0          14538032.0        3603919910.0         566682685.0        1235016484.0        3003961408.0        3529909391.0          14538032.0        3603919910.0         566682685.0        1235016484.0