 # Version information for this restart file 
 # current date 2024-11-24 09:35:21.972
 # current working dir /home/jh9412/HiJihye/comp-lab-class-2024/week12/Runs/w2
 # Program compiled at                              Sat Dec 12 18:27:15 EST 2020
 # Program compiled on                                         cs001.nyu.cluster
 # Program compiled for                                                nyu-intel
 # Source code revision number                                       git:8c64c6e
 &GLOBAL
   PRINT_LEVEL  LOW
   PROJECT_NAME water_aimd_1ns_every0.5fs
   RUN_TYPE  MD
   WALLTIME 21600
 &END GLOBAL
 &MOTION
   &MD
     ENSEMBLE  NVT
     STEPS  2000
     TIMESTEP     4.9999999999999994E-01
     STEP_START_VAL  96
     TIME_START_VAL     4.8000000000000036E+01
     ECONS_START_VAL    -1.1023558357480233E+03
     TEMPERATURE     3.0000000000000000E+02
     &THERMOSTAT
       TYPE  GLE
       REGION  MASSIVE
       &GLE
         NDIM  5
         A_SCALE     1.0000000000000000E+00
         A_LIST     1.8595758612559999E+02    2.7263853498399998E-01    1.1526100454610001E+01   -3.6414578262600003E+01 \
             2.3173375816020001E+02
         A_LIST    -2.7809524712060002E-01    8.5951591808710006E-05    7.2189048017650004E-01   -1.9844539343859999E-01 \
             4.2409257583420001E-01
         A_LIST    -1.4825808131210000E+01   -7.2189048017650004E-01    1.3590902121280000E+00    5.1498896280349999E+00 \
            -9.9949268450990001E+00
         A_LIST    -1.0372189126880000E+01    1.9844539343859999E-01   -5.1498896280349999E+00    2.6661910891169999E+01 \
             1.1507715495310000E+01
         A_LIST     2.1801346360420001E+02   -4.2409257583420001E-01    9.9949268450990001E+00   -1.1507715495310000E+01 \
             3.0958394565589998E+02
         &THERMOSTAT_ENERGY
              -1.4170373504899837E-03
              -2.6817640856715105E-05
              -5.2988970509759714E-04
              -2.1220451393166185E-03
              -3.7280148785906876E-05
               3.8041645379727359E-03
              -1.9912605045891928E-03
               3.9738060575330147E-03
               2.1602944624709215E-03
               4.9533585352022180E-04
               2.7578826622772479E-03
               2.9225409376848287E-04
               2.9639742681347604E-03
               5.8439220342275345E-04
               1.6217220936319055E-03
              -1.3386732750336006E-03
               9.4698850661169330E-04
               1.3451787915694136E-03
               2.4025667008838254E-04
              -1.6728307590304068E-03
              -1.0777809678774108E-03
               2.2039386610168141E-03
              -5.2368059047626250E-04
               4.2347656390818577E-04
               8.9137174816933222E-04
              -1.4104604538023252E-03
               3.5936472055881348E-03
              -6.6953284701298744E-04
               5.3325467726195142E-04
               4.6515184165792507E-04
               8.1672025395665307E-04
              -1.1774240752538579E-03
              -1.5495825582950392E-05
               1.5922459169672579E-03
              -4.4500601563978144E-03
               3.7824950137265645E-03
              -1.1493201320578188E-03
              -5.1316675557124491E-04
               1.1274132614939797E-04
               4.1225377689739482E-05
               4.4560576272722059E-04
              -8.4526239397941273E-05
              -8.1350092725900969E-04
               2.5516018492499543E-03
              -2.9473462375571723E-03
               1.7483195858302423E-03
              -1.1843986733481894E-03
               3.7974459575547349E-05
              -9.3910880342652694E-04
               2.1957289767746439E-04
               1.2611464316168646E-04
              -4.2888898939244443E-04
              -3.6540577207378041E-04
               4.3537958144003919E-04
              -3.0391399911849255E-03
              -1.2643679165194831E-03
              -1.3259568715382176E-03
               1.3025297623915021E-03
               1.5190530181293958E-03
              -3.0260021121426622E-03
               2.3256939894633565E-03
               2.7815248601424881E-03
              -1.5053961663797520E-03
               9.8546638278602396E-04
              -6.8854142704608684E-04
               1.2075608985380212E-03
              -3.1064684341288304E-03
              -1.7914074280457166E-03
              -1.3799761497910751E-03
               1.2443514421132349E-05
               4.4616451514111876E-04
               1.7116542543680340E-03
              -5.0868049368151826E-04
               6.1700935048012123E-04
              -3.2393193099406825E-04
              -2.4088300554208283E-03
               1.0143366905131055E-03
               2.9138539878959605E-03
               4.1728800148110512E-03
              -1.2670119256634829E-03
              -5.3583030170733766E-04
              -3.6025025631363899E-04
               3.5128296847485914E-04
              -2.3972270121100516E-04
               2.7644692044318520E-03
              -1.5956090566484516E-03
              -1.1941572493248040E-03
               4.7720461475907032E-04
              -7.3962433920881927E-04
              -8.4504847668862601E-04
               2.6441738259328443E-03
               2.3120297918165613E-03
               2.3573874662623537E-03
              -1.2581606005673991E-03
              -2.3112432057587192E-03
              -2.4363675470782955E-03
               1.2956517267242621E-04
              -2.8780420833175815E-03
               6.1391427400744034E-04
               1.3647207952564978E-03
               3.2624774426532580E-04
              -7.7880583814464834E-04
               1.1718090896808984E-04
               2.1558766326891872E-03
               6.8577338774663469E-04
               2.6487551640143785E-03
               3.6528545419462589E-04
              -5.8584121999374309E-04
               2.2255099752824178E-03
               8.5629237252516309E-04
               8.3972973325910827E-04
              -1.1847203934251241E-03
               5.1722514948522461E-04
               1.1269337608389854E-03
               1.6005077923385486E-03
               2.7895947671048630E-03
              -8.1270190598569988E-03
               1.2152087395359162E-03
               4.5960533819624209E-04
               3.9976710776866545E-04
               1.6575883236908588E-04
               1.2970368238382302E-03
               2.5948892901145647E-03
              -1.7048853465129947E-04
              -3.3247883085593733E-03
              -1.5212806468489972E-03
               1.2239256486299495E-03
               3.1485513788082980E-03
              -2.0856145573411376E-04
               2.1596294963414017E-03
              -1.3032434917221935E-03
              -1.8451039190432335E-03
              -2.9374222239559629E-04
              -2.6368283180307379E-03
              -6.3818339614858796E-04
               1.2345263595004272E-03
              -1.2177856639376001E-03
              -2.8802272275670711E-04
               6.5477948754423423E-04
               2.0829590445630667E-04
               2.9671280854622743E-03
               1.2941500891190411E-03
              -5.1320241113223788E-04
               5.9540912385774880E-04
              -1.1466428666956048E-03
               1.4766306136970218E-04
               1.0633042263913759E-03
              -6.0370528399059976E-04
              -9.2770457406848796E-04
               1.6784948648691700E-03
              -8.7735366279265191E-04
              -1.5652587869705741E-03
              -1.5275379380964258E-04
               2.4710783514917892E-04
              -5.5763580307751888E-04
               4.6598500584099027E-04
               1.0767982073048776E-03
              -9.7787872233998422E-04
              -3.7749058600378171E-04
               1.1926986378875952E-03
              -8.5835140436205624E-04
              -3.4395712405269206E-03
              -9.0489120141411998E-04
               2.4283088066339313E-04
               2.6964551080747808E-03
               2.0814754961276279E-03
               1.1526452997067805E-03
               1.3977117021703050E-03
              -5.0678236401076734E-03
              -1.0763650574906387E-03
               9.1313037301090681E-05
              -6.3748223899358586E-04
               7.8734327498120569E-04
              -1.3116488472100646E-04
              -9.9527193517159667E-04
              -3.1585201352109606E-04
               3.2651149315664332E-04
               7.3227909236577449E-04
              -8.1536057047493834E-04
               1.3072473725546849E-03
              -7.7183848108919003E-04
              -5.3164199502489051E-04
               1.0617330878013240E-03
               1.6404311382447480E-03
              -6.3351466335234436E-04
               7.5242124730078610E-05
              -6.9275209644222729E-04
              -1.0097070354868490E-03
              -2.4650646566884166E-03
              -5.5249747781449413E-04
               1.1120898271279587E-03
              -4.5120798198069128E-04
               1.4049026675441100E-03
              -1.0655732021565055E-03
               2.5012703531957073E-04
              -5.7424177197064295E-03
               3.3460180698221154E-04
              -6.7355285346878296E-04
               2.5908370741557535E-04
              -1.0257102737075343E-03
               1.3519928233968180E-03
               1.3666051487952226E-03
              -8.8549159163065969E-05
               6.7201691929507095E-04
              -5.1216847897055081E-03
               3.5222614954920378E-04
              -4.3010441261916128E-04
               1.8340167275367430E-03
              -5.8845146245424008E-04
               3.4830249584219637E-03
              -1.1185283986700856E-03
               1.4049798797447955E-03
               1.4483743729990734E-03
              -2.3069847177935882E-03
               1.3136035607497539E-03
               2.0425893246287497E-03
              -5.6115431076820600E-04
               1.3660193364846984E-03
               8.5001726979563094E-04
              -1.0717280657375717E-03
               2.4910471656010651E-03
               6.7519137900164778E-04
              -2.2983607323564959E-03
              -1.9119083089832258E-04
               6.9974098025279725E-05
               5.6076397156732804E-05
               6.4541278620827290E-04
               2.6683768939873078E-04
               1.0172000930803713E-03
               3.7466376586983165E-03
              -1.8871823609073490E-03
               2.8714916640100716E-03
               8.0016305755719903E-04
               9.6730593336107599E-05
               3.0377674349996251E-03
               1.2385902671548463E-03
              -1.9576231460516026E-03
               1.5890246865190593E-03
              -1.6653566649632020E-04
              -2.4419680914706317E-04
               5.0252492179652612E-04
              -1.0093654521629654E-03
               2.1488981016820059E-03
               1.6746792262190347E-03
               1.2137054549597713E-03
              -1.7289791306763803E-04
              -1.1998519351235121E-03
               1.6662715837196037E-03
               1.6234466729204804E-04
              -4.6196010250303355E-03
              -5.7286077257975041E-04
               1.7195120055711502E-03
              -5.3633456391210990E-04
               5.8085322685746509E-04
              -1.5106080186180304E-03
              -1.3531670470917855E-03
              -1.4172717318924482E-03
               2.3144363500620974E-04
               1.6780847131422417E-03
               4.0388173869750592E-04
               1.9705469081215785E-03
               2.0153253866999113E-03
              -4.6384074146718762E-05
               1.2725750784685682E-03
               2.0548739146321227E-03
              -3.2229007437309262E-04
               1.3945510271002432E-04
               1.2230140661785179E-03
              -7.8190659514364332E-04
              -2.1794946905457730E-03
              -1.1476679938542370E-03
               1.5517119741392460E-04
               1.1769607093000552E-03
               6.6216205037974106E-04
              -1.6483148741595324E-04
               1.3270817739026968E-03
              -4.6227019560641435E-03
              -3.9045637379150054E-04
              -2.3287458630102016E-03
              -1.4558204215767731E-04
              -4.0594914310695203E-04
              -1.2105763351943810E-03
               1.7691921409323929E-03
               1.0127351177323233E-03
              -1.7095308476562673E-03
              -6.0007278268805553E-04
              -2.2887994673511554E-03
              -6.8210730887492395E-04
               9.3712173454685657E-04
               5.7509624270445276E-04
              -1.7037612376969043E-04
               2.8436301964566532E-03
              -8.4617269248428331E-04
              -1.4687010691374872E-03
              -2.8792195096627275E-04
               7.1063118225173788E-04
               1.3750931972720290E-03
               5.4891718723823100E-04
              -1.6779208603240655E-03
               3.9028563794798592E-04
               6.6893604310907628E-04
               6.9084706973903027E-04
              -1.4264483132247160E-03
              -4.5211362641254832E-04
               2.8794788251734057E-03
              -2.7784966119301325E-04
               1.8236997986385466E-03
               6.6776053375669248E-04
              -1.1159728220500708E-03
              -8.7411127629655454E-05
              -2.4305530432285330E-03
              -1.9412964201492688E-03
               2.1601293671950363E-03
               6.5890634396027195E-04
              -1.9397788445350765E-03
               4.6470762174776912E-04
              -6.0859082747111918E-05
               4.2890468167559419E-03
               6.2675218045745893E-04
              -2.1844762214630412E-04
               1.2515237919136489E-03
               1.1999049726695655E-03
              -3.8879449894671249E-03
               2.7605086699605272E-03
              -4.4045924325893733E-04
               6.5965161786621374E-04
               6.9322031226373899E-04
               1.7167254721596904E-03
              -1.4424392812274734E-03
              -1.7650151674386606E-03
              -1.6631551746761086E-03
               4.5955630137987718E-04
              -1.4952961152246503E-03
               1.4970539815855688E-03
               6.4596689610621374E-04
              -6.1245280459563869E-04
               1.7528803290810901E-03
               3.9080084995072517E-03
              -1.6885296993389835E-03
               1.8168737289888945E-03
               4.5961323053376134E-04
              -1.6431243052571663E-03
               5.0837499528058757E-04
               6.7285251925039207E-04
              -3.8288800234962674E-04
               1.4095964818605779E-03
              -1.0656181290259834E-04
              -9.8991029624442319E-04
              -1.2040664318148670E-03
               2.5580310556574460E-04
               2.4346689887551874E-04
              -3.2261065148201420E-04
              -2.4111979758469019E-03
              -4.4578686308968728E-05
              -2.8445211545719221E-03
              -1.6566225008559769E-03
               3.6599532679195876E-03
               1.8486731986398519E-03
               4.4723757284777623E-04
               3.6028019030676728E-03
               2.6744891200803690E-04
               3.8829988123811334E-05
              -1.4674763687210414E-03
              -1.9512587960188643E-03
               1.1377822988980827E-03
               1.9829748879086580E-04
               2.3188552501481746E-03
               4.2869194655165583E-04
               8.2292414133184396E-04
              -1.2531841254810828E-03
               3.2112187842142702E-04
              -1.0638996788082753E-03
               2.6642494299188128E-03
               3.2268884187681773E-04
              -1.1997678817291754E-03
              -3.0529100166932035E-03
               5.6281654041027615E-04
               3.2105462098825667E-04
               1.5190196931445187E-03
              -3.1078221406008911E-04
              -3.1364274084541913E-04
               1.1642822934389784E-04
               2.5950995595196550E-03
               1.5869528027983907E-03
              -6.6749811773295503E-03
              -6.6754790293888989E-04
              -5.3428245260694310E-04
              -2.5024042482620105E-03
              -5.6497455506299360E-04
               2.3924754771317605E-04
               3.4791571013887757E-04
              -3.3633032849499447E-04
               8.9788495276347570E-04
              -3.4669862465465612E-04
              -1.2023729341581180E-03
              -5.9972256949150204E-04
              -1.4958724399137336E-03
              -3.0920513790100930E-04
               6.7019283492242092E-04
              -9.4002318841689429E-04
              -3.4984389527194229E-03
               3.1547311941341684E-03
              -1.3806112855198713E-03
               1.0612239971254846E-03
               1.2092835576501858E-03
              -5.3980390828505562E-04
              -6.3856834443842814E-04
               1.4940715062105247E-03
              -1.7479999910087708E-03
              -1.0411653962149265E-03
              -1.4775797357008556E-03
              -1.1237966846930629E-05
              -2.2865122648850118E-04
               2.5534260938778826E-03
              -1.9292531339821196E-03
              -7.0020840697022999E-04
               3.4294460112140171E-04
              -1.9193315519465592E-03
               1.0779132541783756E-03
               8.6339588201443445E-04
               8.3523255089607115E-04
              -3.6615323716560903E-03
               1.9436275005529765E-03
               6.1122042142302841E-04
              -9.1673052588060755E-04
              -3.0782738049303679E-03
               1.0605445295563021E-03
              -3.1717423499095978E-03
               6.6811169702572857E-04
               1.2193976847190118E-03
               1.8421406814459300E-03
              -3.0636095887608904E-03
               1.9273323380703056E-03
              -9.2263086398382385E-04
              -3.1995508138376591E-04
              -1.4741493761635373E-04
              -1.1199616530116053E-03
               1.9440078015610777E-04
               5.2463205200111362E-04
               8.7490635522264454E-04
              -3.2312509273791147E-03
              -1.6415708969949726E-03
              -2.0073202205117295E-03
               2.7953472407941395E-03
               1.8035135110836874E-03
               2.5366369843836814E-03
               4.1067172711026136E-04
              -1.9465975346939493E-03
              -2.9669362184938796E-05
              -1.4845848691757296E-04
              -3.3084642178109040E-04
              -3.3060323428947096E-03
              -1.9457972203206202E-04
               6.7787222657919729E-04
              -2.8477488376025986E-03
               1.0381935092542004E-03
               5.4467665526133427E-03
               4.1358590499579722E-04
              -1.4234380804598983E-03
               2.5317985342513034E-04
               4.5247282619284629E-03
              -9.3875391763515890E-04
               2.5086444363194185E-03
              -3.0505641999529673E-03
               2.3833002577131027E-03
               9.8569661721444632E-04
              -3.4581195465237919E-03
              -5.2286093062910719E-04
               1.4123715771591743E-03
               1.5194430970015033E-03
               6.2214146862430038E-05
              -2.3794640165841255E-03
               1.0176160600159920E-03
               1.0024656291333521E-03
               3.1589877635069672E-05
               2.0059739980892283E-03
               1.1497361622498574E-03
              -6.3077160181845035E-04
               2.9678805632120365E-05
               9.8259535397945443E-04
               4.8804346198188736E-03
              -4.8926176076863749E-04
               4.8811632556196988E-04
              -1.6077729597662813E-04
              -6.9706798412002256E-04
               1.0262802135864129E-04
              -5.5093031227022816E-04
              -8.2359746041997149E-04
              -2.8078670302723401E-03
               7.6792034596352135E-04
               1.1445754135017493E-04
              -2.1527507077323505E-04
              -7.8478451081000959E-04
              -1.0392050811041586E-03
               4.1112032467182855E-03
               8.3988102875952471E-04
              -8.6767440540873504E-04
              -1.6721402339219995E-03
              -2.1439656244744850E-03
              -4.0957509914495652E-03
               4.0156400925705927E-03
              -4.5734758964196176E-04
               1.1040621450252401E-03
              -1.8039328656263294E-04
               3.2976231734030848E-04
              -2.5295898178139035E-03
               1.2909663415440350E-03
               1.9901814972100541E-03
              -3.1831242968614052E-04
               1.4267474810635087E-04
               1.2370888677633941E-04
               1.1590127114675624E-03
              -5.7301702566253778E-03
               2.2501346840832956E-03
              -1.6301226745665597E-06
               1.9376712791834673E-03
               9.0487382472187255E-04
               3.6297731677688614E-04
               1.0799991779822569E-03
              -3.2273885935872292E-03
               3.9417089599304625E-04
              -2.7951752496182462E-03
               1.0280552352688605E-03
              -5.7360314336452934E-04
               6.2898636631755300E-04
               4.3261712024609612E-04
              -2.9293217261754812E-03
              -1.0981079120077628E-03
               2.4330108746885748E-03
               7.8803126670179771E-04
              -8.4220417830556523E-04
               5.2102856825110284E-04
              -8.9549569003392893E-04
               2.1650365710631047E-05
               7.1249799944034773E-04
              -3.0122042085960138E-03
               1.0030860687232773E-03
              -1.1268501148334038E-03
              -2.7386655174138429E-04
              -9.3916170586725287E-05
               4.3058306172351053E-04
               8.7325570092627994E-05
               8.6799552220611948E-04
               8.8120874093027652E-04
               1.5092867629025152E-04
              -3.2456904290141834E-04
               1.9012126726225835E-04
              -3.9640207894803866E-04
               1.7546281935733295E-03
               1.1084294838808197E-03
              -1.9813731615613878E-03
              -1.5603129316962953E-03
               3.3294880830526296E-04
               5.7444912074122473E-04
               7.4525943546577451E-04
              -2.2898146703761910E-03
               2.0997889503402479E-03
              -5.0848244291388928E-05
               7.5384218952237953E-03
              -2.3715599571726268E-03
               2.5883611972366666E-04
               4.2087538945974752E-04
              -3.1132907885799751E-03
               4.9393900541659210E-03
               3.4252277172868578E-03
               7.8485464703508846E-04
              -3.8142757878303992E-03
              -8.5266474787788532E-05
               1.0954593199146588E-03
              -1.6548402173531963E-05
              -2.7454807108648564E-03
              -1.1433403196061680E-03
               1.9695729410322427E-03
               9.5225850308659266E-04
              -1.8155255947293308E-03
              -3.9677529573178150E-03
         &END THERMOSTAT_ENERGY
         &RNG_INIT
Wiener process for Thermostat # 1        1 F T T  -5.4537245049547844E-01        1604413810.0        3984817793.0         525937307.0        1277494032.0        3472432501.0        1543968571.0             12345.0             12345.0             12345.0             12345.0             12345.0             12345.0             12345.0             12345.0             12345.0             12345.0             12345.0             12345.0
Wiener process for Thermostat # 2        1 F T T   1.3986717923009044E+00        4053310649.0        2511500936.0         457716513.0         789106899.0        4193540098.0        1378619229.0        3692455944.0        1366884236.0        2968912127.0         335948734.0        4161675175.0         475798818.0        3692455944.0        1366884236.0        2968912127.0         335948734.0        4161675175.0         475798818.0
Wiener process for Thermostat # 3        1 F T T  -4.0692228958073795E-01         417099270.0        2333688696.0        4020713684.0        3223537420.0        1871478574.0        3889285813.0        1015873554.0        1310354410.0        2249465273.0         994084013.0        2912484720.0        3876682925.0        1015873554.0        1310354410.0        2249465273.0         994084013.0        2912484720.0        3876682925.0
Wiener process for Thermostat # 4        1 F T T  -9.2659748937801301E-01         603081192.0        3607494876.0        2408732333.0        3137720522.0        2883051434.0         346436773.0        2338701263.0        1119171942.0        2570676563.0         317077452.0        3194180850.0         618832124.0        2338701263.0        1119171942.0        2570676563.0         317077452.0        3194180850.0         618832124.0
Wiener process for Thermostat # 5        1 F T T  -1.0988649064362575E-01        1927380530.0        2269300917.0        4095217234.0        1578372524.0         137870186.0         306279807.0        1597262096.0        3906379055.0        3312112953.0        1016013135.0        4099474108.0         275305423.0        1597262096.0        3906379055.0        3312112953.0        1016013135.0        4099474108.0         275305423.0
Wiener process for Thermostat # 6        1 F T T   1.2255162331849043E+00         297724346.0         560405464.0         391428877.0        3957123794.0        1519248942.0        3535233765.0          97147054.0        3131372450.0         829345164.0        3691032523.0        3006063034.0        4259826321.0          97147054.0        3131372450.0         829345164.0        3691032523.0        3006063034.0        4259826321.0
Wiener process for Thermostat # 7        1 F T T   2.2377419788868242E+00        3586255460.0         677672588.0        3557672869.0         770125646.0        2222061253.0        1512340230.0         796079799.0        2105258207.0         955365076.0        2923159030.0        4116632677.0        3067683584.0         796079799.0        2105258207.0         955365076.0        2923159030.0        4116632677.0        3067683584.0
Wiener process for Thermostat # 8        1 F T T  -1.7090835075627131E-01        2765087039.0         330627847.0        3324273558.0        1196345412.0        3774466594.0        1207774555.0        3281794178.0        2616230133.0        1457051261.0        2762791137.0        2480527362.0        2282316169.0        3281794178.0        2616230133.0        1457051261.0        2762791137.0        2480527362.0        2282316169.0
Wiener process for Thermostat # 9        1 F T T  -9.1315873337207287E-01        1972427828.0        4040669858.0        3208152709.0        3054735289.0        3087986878.0         604152700.0        3777646647.0        1837464056.0        4204654757.0         664239048.0        4190510072.0        2959195122.0        3777646647.0        1837464056.0        4204654757.0         664239048.0        4190510072.0        2959195122.0
Wiener process for Thermostat # 10       1 F T T   1.5915801590241552E+00          48619639.0         389850003.0        3626778365.0        4189353342.0        1746481298.0        2974347648.0        4215590817.0        3862461878.0        1087200967.0        1544910132.0         936383720.0        1611370123.0        4215590817.0        3862461878.0        1087200967.0        1544910132.0         936383720.0        1611370123.0
Wiener process for Thermostat # 11       1 F T T  -3.9618039293631169E-01         230646628.0        2242536986.0        1770727003.0        2968642033.0         925233505.0        3611820442.0        1683636369.0         362165168.0         814316280.0         869382050.0         980203903.0        2062101717.0        1683636369.0         362165168.0         814316280.0         869382050.0         980203903.0        2062101717.0
Wiener process for Thermostat # 12       1 F T T  -6.2821853928544813E-01        2829584913.0        1245004007.0          99786691.0        3185948728.0         454687099.0         332587065.0         272317999.0         166758548.0         310112982.0         201045826.0        1680231254.0         118290799.0         272317999.0         166758548.0         310112982.0         201045826.0        1680231254.0         118290799.0
Wiener process for Thermostat # 13       1 F T T   9.8798540847135630E-01        3398011368.0         465683135.0        2582219090.0        1635613562.0         932025285.0        1050323803.0        2245755202.0        1652682525.0        2865544364.0         721509566.0         209733568.0         592362218.0        2245755202.0        1652682525.0        2865544364.0         721509566.0         209733568.0         592362218.0
Wiener process for Thermostat # 14       1 F T T   1.1468938465562621E+00        3854383837.0        3981194869.0        4269206591.0        3848520519.0        1559816320.0        1807328635.0        3003961408.0        3529909391.0          14538032.0        3603919910.0         566682685.0        1235016484.0        3003961408.0        3529909391.0          14538032.0        3603919910.0         566682685.0        1235016484.0